 SiC                                    
   1.00000000000000     
    15.4092868883055232    0.0000013602236817    0.0000064172438454
    -7.7046422584772571   13.3448293454718616    0.0000064700420105
     0.0000086665211735    0.0000097963858715   20.1749955088758988
   C    Si
   200   199
Direct
  0.9923823526244334  0.0076158175772064  0.0903078915281498
  0.9999878009994937  0.0000090744636053  0.5934855963680824
  0.0001323693561552  0.2014645272373801  0.0936497946015024
  0.0000293163877380  0.2000737699283376  0.5936054519488948
  0.9999908550711218  0.3999940943100697  0.0935751040697094
  0.0000036391666130  0.4000002677596182  0.5935456355582338
  0.0001318805045275  0.5986651061613336  0.0936482456004350
  0.0000292664506359  0.5999528851520378  0.5936035896333343
  0.9923833623309775  0.7847673426693793  0.0903055558213221
  0.9999878623585033  0.7999764202847828  0.5934844794016328
  0.2152372925844309  0.0076180715002308  0.0903099459299710
  0.2000206563890276  0.0000091109930561  0.5934858525993902
  0.2001480459728487  0.2003018021905862  0.0936782129969346
  0.2000115176451642  0.2000237216177489  0.5935135561529087
  0.2001517992521546  0.4001937686574807  0.0936790111677619
  0.2000265738264922  0.4000242597180886  0.5935510420980221
  0.2001516333918557  0.5999559882393647  0.0936781289140037
  0.2000268040943111  0.5999998278868887  0.5935501364239418
  0.2001477041343518  0.7998442276987472  0.0936762463592287
  0.2000117870609318  0.7999856148117303  0.5935119840036562
  0.4013284001733279  0.9998649506504222  0.0936509647264845
  0.4000445447952341  0.9999679880269723  0.5936051906875714
  0.4013290069893058  0.2014628023959662  0.0936512465987371
  0.4000442132186846  0.2000740278974508  0.5936057518555861
  0.4000399667955212  0.4001931906114387  0.0936792798902840
  0.3999975303667365  0.4000244820928609  0.5935511414828064
  0.3999990328075064  0.5999991036303485  0.0936375565899671
  0.3999993705111948  0.5999986193769095  0.5935773468111346
  0.4000402693619961  0.7998459154225929  0.0936784845615873
  0.3999979856671027  0.7999710945403976  0.5935503318940332
  0.6000038655974561  0.0000077961642576  0.0935756350303723
  0.5999971402810425  0.9999938898095916  0.5935459511570621
  0.6000670904298200  0.2000325948950215  0.0935875989478888
  0.6000151669620506  0.2000062764379150  0.5935576973491660
  0.6000032251881099  0.3999940965846188  0.0935756139852951
  0.5999966570055795  0.4000006285238603  0.5935458409598783
  0.5998048861697461  0.5999572042203064  0.0936779795852953
  0.5999731527101368  0.6000001941944293  0.5935499421934415
  0.5998055951733402  0.7998466376869835  0.0936780671407017
  0.5999734655089939  0.7999712317833004  0.5935500365243860
  0.7985365653411953  0.9998663533487868  0.0936494978721190
  0.7999235005240785  0.9999679636045635  0.5936047909971884
  0.7999659772467016  0.2000329039356669  0.0935868808896283
  0.7999911647374254  0.2000061238105248  0.5935574992352575
  0.7999653940053802  0.3999299708106062  0.0935863074894767
  0.7999909749787256  0.3999820520243667  0.5935568617944433
  0.7985350206887210  0.5986668544649169  0.0936482232804058
  0.7999234071102738  0.5999532014826573  0.5936034903794702
  0.7996969930514842  0.7998472667669991  0.0936751507587517
  0.7999735451964940  0.7999858130379474  0.5935116435692860
  0.9994800883817219  0.0005203709000549  0.3442079064049907
  0.9999801591428319  0.0000233392793855  0.8433760620438948
  0.9999135951897892  0.2001367889804952  0.3436262467018462
  0.0001189994688116  0.2002124692536728  0.8432950946112792
  0.9999649955438041  0.3999812487841864  0.3436327108369162
  0.0000198124587669  0.4000122890761250  0.8435367062357314
  0.9999138513628882  0.5997751066326392  0.3436238121354913
  0.0001187561533176  0.5999110520068319  0.8432933379109343
  0.9994807912049656  0.7989599074984121  0.3442042179440456
  0.9999795253758201  0.7999612354988518  0.8433748104414381
  0.2010439949966988  0.0005213920726746  0.3442098061033090
  0.2000410961825401  0.0000233880612272  0.8433766562124275
  0.2000083245007834  0.2000156827865292  0.3436030499932081
  0.1999980189230552  0.1999973124708534  0.8435030125546035
  0.1999972425334808  0.3999997258890384  0.3436299391249923
  0.2000070639966548  0.3999995262563382  0.8435994526864052
  0.1999973386529317  0.5999946762383539  0.3436287962420922
  0.2000073099896797  0.6000135632077500  0.8435986528117836
  0.2000081251879458  0.7999904862952470  0.3436006724731240
  0.1999983440432687  0.8000066862846913  0.8435015711307629
  0.4002244589090295  0.0000853007216043  0.3436262763364273
  0.4000935517232821  0.9998875857626189  0.8432958515359721
  0.4002247368745588  0.2001371178787863  0.3436272192993202
  0.4000928245186183  0.2002123678288551  0.8432963143833631
  0.4000038081961094  0.3999999267200107  0.3436303387153148
  0.3999924692992830  0.4000000994298694  0.8435996334585248
  0.3999998919149751  0.5999984982553328  0.3436282371068142
  0.4000028268001394  0.6000050256416911  0.8436182841737635
  0.4000039064173776  0.8000012910439592  0.3436290618508536
  0.3999933744560892  0.7999998596578778  0.8435988736289367
  0.6000174078947824  0.0000333703909525  0.3436329494902327
  0.5999942070371811  0.9999874331837399  0.8435372895051013
  0.6000383704793488  0.2000178313935385  0.3435769226141147
  0.6000012452609775  0.2000040467111182  0.8435217713655727
  0.6000174435878437  0.3999815407157195  0.3436332651469478
  0.5999927640169150  0.4000129711946146  0.8435372029853379
  0.5999986610097536  0.5999948260469219  0.3436287346629491
  0.6000067597214205  0.6000143112695665  0.8435987077450000
  0.5999988999402004  0.8000013435890833  0.3436285986596757
  0.6000075752138923  0.8000001491470919  0.8435987479528528
  0.7998625985047517  0.0000852097285963  0.3436250686978273
  0.7997934957782138  0.9998871865626068  0.8432946437602359
  0.7999804273109083  0.2000177502470746  0.3435762829103529
  0.8000031170205482  0.2000037504598301  0.8435212667304358
  0.7999803969596626  0.3999598776086125  0.3435757217958151
  0.8000024944941948  0.4000049707308199  0.8435207012920534
  0.7998627090066119  0.5997754273570736  0.3436235825500342
  0.7997918652743568  0.5999115487788564  0.8432933535671673
  0.7999837997663777  0.7999907221854397  0.3435995559743164
  0.8000077315790940  0.8000070015868990  0.8435010692382000
  0.0668033433393878  0.1338247880981693  0.2189617057556720
  0.0666852055802122  0.1333464224141299  0.7187929019463397
  0.0667187518199289  0.3335146759600272  0.2189922116907904
  0.0667313795211397  0.3334316718506579  0.7188187055419273
  0.0667184751221225  0.5332034927896115  0.2189910587597809
  0.0667313608185012  0.5333024964765484  0.7188176515441891
  0.0668028768082834  0.7329790246959352  0.2189583455897292
  0.0666850760066412  0.7333413165853713  0.7187914030003998
  0.0666720888639935  0.9333385330585092  0.2295238901052887
  0.0666669513366377  0.9333346997936661  0.7187360733779571
  0.2670223602309581  0.1338250554249952  0.2189642279161485
  0.2666612585231128  0.1333468104609034  0.7187931574516657
  0.2667062250411354  0.3334111072567078  0.2189847246145195
  0.2666748519564182  0.3333492562160249  0.7188739543574155
  0.2667072349388295  0.5333530566236655  0.2189696249446170
  0.2666871617785314  0.5333451690397507  0.7189055171490870
  0.2667055150569013  0.7332940006605895  0.2189830746161208
  0.2666749721064974  0.7333288506034493  0.7188728292229102
  0.2670210874590204  0.9331969728174604  0.2189633299248077
  0.2666613979663223  0.9333177089188704  0.7187924972621476
  0.4666798090601222  0.1333397136748611  0.2189041805825387
  0.4666778324415779  0.1333409650708302  0.7188327161874440
  0.4667968554007076  0.3335144347177761  0.2189929894626921
  0.4667004629111656  0.3334317870426036  0.7188192614554765
  0.4666470965248833  0.5333530485034323  0.2189697480938160
  0.4666587070891471  0.5333452133839441  0.7189055323003890
  0.4666468996891568  0.7332925344918638  0.2189692866043042
  0.4666589606218334  0.7333171673098060  0.7189052405865866
  0.4667962620084007  0.9332814335673996  0.2189921169207237
  0.4667009415983462  0.9332727246461805  0.7188187381071097
  0.6666584947344051  0.1333165573657059  0.2189053706394378
  0.6666599848025806  0.1333202571076411  0.7188695560208228
  0.6666584890226579  0.3333412520793473  0.2189053711736742
  0.6666596702826789  0.3333438683739218  0.7188693988788020
  0.6664860381145978  0.5332033048295701  0.2189911201010280
  0.6665708485072518  0.5333025069218197  0.7188177900636814
  0.6665900616989296  0.7332941165437948  0.2189823089274436
  0.6666537994042423  0.7333285735826270  0.7188725115461426
  0.6664859452335821  0.9332814701959576  0.2189913948688892
  0.6665716207090906  0.9332723593838944  0.7188183172776179
  0.8666607531704925  0.1333397612442896  0.2189026477318962
  0.8666626559703207  0.1333404503047942  0.7188321812863472
  0.8666831359569495  0.3333412107759890  0.2189048563789299
  0.8666836168637176  0.3333437286841413  0.7188691049932903
  0.8666604499583751  0.5333199822482378  0.2189013027622357
  0.8666622324526609  0.5333254610511731  0.7188310466005801
  0.8661781305424275  0.7329796060260855  0.2189579595644904
  0.8666552611494204  0.7333411407785370  0.7187912334631268
  0.8661780996316117  0.9331976705860526  0.2189604210793522
  0.8666557144769532  0.9333172228281844  0.7187920731454477
  0.1333438938109246  0.0666867584557651  0.4688743845498830
  0.1333241263366546  0.0666540586936668  0.9687401876415788
  0.1332970702582927  0.2666643036397542  0.4689033976453125
  0.1333252383642404  0.2666055482446645  0.9689333083359664
  0.1333228874525275  0.4666596429647284  0.4689076736999867
  0.1333601403262090  0.4666812135626163  0.9689475814278493
  0.1332973875990153  0.6666290628339944  0.4689015872049313
  0.1333246969801422  0.6667209330608356  0.9689319806489719
  0.1333439316199482  0.8666529508206045  0.4688727558645466
  0.1333232759210431  0.8666697065498441  0.9687388805622557
  0.3336802823989171  0.0668378886171131  0.4691560353140105
  0.3341243383794491  0.0670628938410148  0.9679387692290179
  0.3333675819930159  0.2666640274560217  0.4689036851466812
  0.3332776890789846  0.2666052060459394  0.9689337687666792
  0.3333353034810675  0.4666705510569455  0.4689084964737982
  0.3333263265367554  0.4666553300217604  0.9689546934162560
  0.3333353402526564  0.6666611950502658  0.4689077525543722
  0.3333262810646113  0.6666745456617035  0.9689541968549389
  0.3333674301430466  0.8666992557575300  0.4689022685088786
  0.3332778061325546  0.8666747196718960  0.9689328039401101
  0.5333994742150231  0.0666956990328838  0.4689154725989091
  0.5333860978431447  0.0666498042356198  0.9688361298642645
  0.5333997741658986  0.2666994835004417  0.4689158505432487
  0.5333857912122847  0.2667379150159686  0.9688361789438932
  0.5333369086068831  0.4666593890787921  0.4689078088668676
  0.5333198046882413  0.4666813659504984  0.9689477981904894
  0.5333257795523524  0.6666611287970967  0.4689074945632350
  0.5333465821234041  0.6666750252409179  0.9689540873256913
  0.5333367040083855  0.8666735096004555  0.4689073807088751
  0.5333201636688195  0.8666413918530232  0.9689476163109338
  0.7332964522267233  0.0666958657428618  0.4689150644394700
  0.7332631974479039  0.0666504898759512  0.9688353668709175
  0.7333320465373985  0.2666638689126046  0.4688805849878468
  0.7333336970125958  0.2666672219644173  0.9688849303716135
  0.7332969785772750  0.4665968086716950  0.4689144142203198
  0.7332620234595145  0.4666128796314291  0.9688346173893482
  0.7333322758370048  0.6666290017582807  0.4689011166851068
  0.7333964151951864  0.6667219200094978  0.9689317094741805
  0.7333321510056348  0.8666993006033075  0.4689015068648766
  0.7333967641780069  0.8666761587116487  0.9689320708601553
  0.9331585851263994  0.0668380177747687  0.4691549969044104
  0.9329359084484308  0.0670655360988796  0.9679356135748923
  0.9333001485341339  0.2666997735807916  0.4689153323495964
  0.9333516453901090  0.2667388177714284  0.9688350733922936
  0.9333004421909780  0.4665968869416045  0.4689143066746669
  0.9333510867611243  0.4666126787815401  0.9688342810308854
  0.9331593745996761  0.6663176447437350  0.4691523865532807
  0.9329343326850436  0.6658686200830993  0.9679329224387979
  0.9333100008609732  0.8666529326179990  0.4688723153440548
  0.9333451523447417  0.8666719519179089  0.9687381483365909
  0.9999718288461878  0.0000238261400827  0.4996814281669450
  0.0001208140341863  0.9998741194113269  0.0003571035168371
  0.9999725511832195  0.2000618520008550  0.4998780933413141
  0.9998616392259198  0.1997149305312634  0.0000150269629703
  0.9999712015100098  0.3999838988558074  0.4998045327153497
  0.9999604485060526  0.3999804665004393  0.9999217193529353
  0.9999728728530750  0.5999074029218313  0.4998760346538959
  0.9998607624813731  0.6001462541968594  0.0000136361664467
  0.9999722127826630  0.7999439646134918  0.4996802646569378
  0.0001197536460274  0.8002430936084950  0.0003571971554440
  0.2000523826765067  0.0000237821293491  0.4996818105623104
  0.1997452155782125  0.9998718914127007  0.0003569550372461
  0.1999615391879005  0.1999230023691844  0.4997416624290434
  0.1997324191530890  0.1994677939165694  0.0001367374486204
  0.1999774264935608  0.3999630154062324  0.4997975162416809
  0.1999028268306500  0.3998294043342290  0.9999782665404011
  0.1999775211767274  0.6000109911572854  0.4997965764374032
  0.1999026913874012  0.6000754020074945  0.9999775705306996
  0.1999615287935672  0.8000343852983623  0.4997399567983828
  0.1997323003859985  0.8002652071564694  0.0001352455986142
  0.4000893477705364  0.0000230013363272  0.4998780114343634
  0.3998508875406419  0.0001376482364746  0.0000159665535189
  0.4000895620373419  0.2000618389921626  0.4998786362825198
  0.3998507999487720  0.1997143584209753  0.0000162115863795
  0.3999856998431568  0.3999630505460396  0.4997976505608573
  0.3999248395932454  0.3998296698662627  0.9999785026021418
  0.3999989833863178  0.5999978198338813  0.4998205041049616
  0.3999999733858165  0.6000016524943442  0.9999386514700785
  0.3999855000150575  0.8000187609131019  0.4997967626219073
  0.3999250891123177  0.8000977973509509  0.9999778883625327
  0.6000125589530872  0.0000246874863330  0.4998048901605815
  0.6000201671363685  0.0000407129251413  0.9999222694551004
  0.6000192207018388  0.2000073467676928  0.4998072584064908
  0.5999105096580333  0.1999559005730766  0.9998767397801001
  0.6000130519873980  0.3999839898219034  0.4998048172544720
  0.6000194624127291  0.3999806791499848  0.9999222273494440
  0.6000338359491595  0.6000111731528710  0.4997964315494400
  0.6001720825552351  0.6000761326489789  0.9999775449865764
  0.6000336644607633  0.8000188690653051  0.4997964813195862
  0.6001723664520079  0.8000984135278809  0.9999776290854820
  0.7999342133820880  0.0000230892182165  0.4998773821093686
  0.8002862266283988  0.0001389587141573  0.0000148843584816
  0.7999885114278391  0.2000073784762835  0.4998069901169822
  0.8000451962355732  0.1999561434058123  0.9998761124793135
  0.7999888376631618  0.3999772530659343  0.4998063079065067
  0.8000447141583759  0.4000893546515437  0.9998755781708301
  0.7999351008830645  0.5999076198423593  0.4998759500612258
  0.8002855824579422  0.6001469104155267  0.0000137299287533
  0.8000732774323596  0.8000345631690960  0.4997395359397284
  0.8005323760609289  0.8002663977617315  0.0001348519217321
  0.9999141432005729  0.0000880346770925  0.2492189030825933
  0.0000231745580373  0.9999785349640076  0.7498528377745942
  0.0001051198316374  0.1999772798541475  0.2497134942297417
  0.0000826861911872  0.2000774451473233  0.7497704210485832
  0.0000536299378186  0.4000268475509397  0.2498268313229169
  0.0000437027050380  0.4000236765415704  0.7498877784383697
  0.0001054183711584  0.6001284757070665  0.2497109396637383
  0.0000825732560750  0.6000083212427118  0.7497688880394050
  0.9999146953894992  0.7998278700259157  0.2492143891317835
  0.0000228507001871  0.8000471728433279  0.7498518223395949
  0.2001757167871238  0.0000882039556572  0.2492218560478070
  0.1999543684873792  0.9999787789435202  0.7498531383975453
  0.1998544030548657  0.1997091959159986  0.2497120078848751
  0.1999813317070606  0.1999633971191601  0.7498961006880205
  0.2000147800237916  0.3999640818451690  0.2498110177959230
  0.2000100620566975  0.3999984017449290  0.7499247460811000
  0.2000144814433079  0.6000499993431925  0.2498098440097759
  0.2000100724645442  0.6000156214778365  0.7499239751056771
  0.1998533477902993  0.8001441588745332  0.2497095096865158
  0.1999813514150426  0.8000213962867483  0.7498948463164327
  0.3998727336351066  0.9998943872907742  0.2497136498631002
  0.3999947412739996  0.9999210595780873  0.7497708863369967
  0.3998737038152649  0.1999780127785858  0.2497146240941588
  0.3999944978353189  0.2000776485495886  0.7497713093465134
  0.3999508376670371  0.3999643181464556  0.2498112613106326
  0.3999885487487679  0.3999987610871626  0.7499249754552150
  0.4000006963114133  0.5999997673353252  0.2498270326276651
  0.4000019540744694  0.6000032307846459  0.7499355035582599
  0.3999500313104857  0.7999850730746457  0.2498099277163889
  0.3999887762536137  0.7999942426499858  0.7499242641774871
  0.5999733586977350  0.9999454193730705  0.2498267590748019
  0.5999805649213260  0.9999606032226698  0.7498883521835263
  0.5998995035070522  0.1999492983546625  0.2497322242074939
  0.5999776563208654  0.1999911330199218  0.7498767843703140
  0.5999740669096316  0.4000273028546230  0.2498271148173429
  0.5999800263667896  0.4000241289689034  0.7498882866656231
  0.6000371824460974  0.6000504819132272  0.2498094528296993
  0.6000058503372271  0.6000159963166256  0.7499241495307247
  0.6000369416839025  0.7999849627379915  0.2498092900967885
  0.6000061368314311  0.7999943017745714  0.7499242092396911
  0.8000233088624700  0.9998938141125188  0.2497120127658364
  0.7999258366299276  0.9999205814056027  0.7497701103781549
  0.8000504882205016  0.1999488273397457  0.2497315899729121
  0.8000133714601663  0.1999908418456720  0.7498763212057071
  0.8000507269751587  0.4001012014281216  0.2497310641741284
  0.8000131329186636  0.4000266730278229  0.7498758086265062
  0.8000239907086183  0.6001291505108105  0.2497104403360719
  0.7999250545930141  0.6000085626216393  0.7497690062840294
  0.8002928458852944  0.8001453539943926  0.2497078038713543
  0.8000393935056983  0.8000214193977766  0.7498945354782947
  0.0666451163809558  0.1329222527935653  0.1249053752518452
  0.0666753028868948  0.1333108988904318  0.6248309906668799
  0.0667603784132179  0.3337289934847431  0.1249235801351870
  0.0667057619984676  0.3333848570155074  0.6248738294915915
  0.0667599982603177  0.5330296462701440  0.1249224684312213
  0.0667058192766572  0.5333188582019651  0.6248727119249808
  0.0666432723761040  0.7337218866731433  0.1249015284202175
  0.0666754454306978  0.7333622169214383  0.6248294099221894
  0.0666651439635668  0.9333313885892954  0.6247817990959785
  0.2662743940086135  0.1329265286610548  0.1249084650579793
  0.2666349783674118  0.1333111713968627  0.6248311804289646
  0.2665603185988879  0.3331229717496241  0.1248980406204989
  0.2666552802715893  0.3333109843392668  0.6248743371108386
  0.2667259040763333  0.5333623132734876  0.1249028434738917
  0.2666705052898828  0.5333343920957568  0.6248974888268538
  0.2665597509074017  0.7334354642427292  0.1248964804071394
  0.2666554823693368  0.7333425522887295  0.6248731625956816
  0.2662731189319404  0.9333445817655353  0.1249077400637978
  0.2666351840578056  0.9333217065946680  0.6248304937857729
  0.4663696953386068  0.1331839519038610  0.1247387052820584
  0.4666659323169901  0.1333319848326509  0.6248679007003226
  0.4669676845415550  0.3337284799868947  0.1249240271873674
  0.4666790077447796  0.3333852320768956  0.6248742264725802
  0.4666364144948817  0.5333625197517142  0.1249027238897898
  0.4666640953052664  0.5333346838976218  0.6248975580062414
  0.4666365943345515  0.7332729879130756  0.1249023310547718
  0.4666642478850469  0.7333279905402890  0.6248972843413128
  0.4669673671114438  0.9332377978450801  0.1249233445069928
  0.4666792835883482  0.9332921169737917  0.6248737730944058
  0.6666445465951415  0.1332886818471866  0.1248085241752847
  0.6666596868876346  0.1333191317189974  0.6248770189355337
  0.6666442907931569  0.3333537936632990  0.1248084344981028
  0.6666595741961308  0.3333386740078005  0.6248767644812796
  0.6662704845224524  0.5330305055116653  0.1249222999375424
  0.6666129625575729  0.5333192961788507  0.6248728568699122
  0.6668768791837266  0.7334372055731821  0.1248957361411612
  0.6666871171300193  0.7333427830800744  0.6248729848054299
  0.6662706952435407  0.9332381778198091  0.1249227230850296
  0.6666131387967379  0.9332920641622334  0.6248735153611213
  0.8668140769881543  0.1331843067861835  0.1247373742608089
  0.8666657694022531  0.1333316556500409  0.6248675232875438
  0.8667097434431710  0.3333536924684214  0.1248080975872524
  0.8666788307720508  0.3333384217600600  0.6248765016268485
  0.8668137474793306  0.5336272608900311  0.1247358747660579
  0.8666657393286505  0.5333320990819987  0.6248662047040043
  0.8670774880503155  0.7337242776078957  0.1249014355888865
  0.8666860170370785  0.7333623920700767  0.6248293343878089
  0.8670745191382150  0.9333479560997884  0.1249045599917081
  0.8666860432227361  0.9333216587181040  0.6248302271698057
  0.1332088687528261  0.0664161788466515  0.3745938296308656
  0.1332829847072906  0.0665688759143134  0.8750685480484277
  0.1332659735601173  0.2665329422306094  0.3747875438612971
  0.1333055167146501  0.2665602956285398  0.8750015816509749
  0.1333212037911432  0.4666594149910922  0.3748254665298318
  0.1333327471025720  0.4666694705998342  0.8749872416275941
  0.1332661294292043  0.6667307841343133  0.3747854443597294
  0.1333052989753009  0.6667508567238759  0.8750003101311494
  0.1332088378669946  0.8667904101320274  0.3745918168965700
  0.1332824739410127  0.8667187517143128  0.8750675686026838
  0.3337424611719806  0.0668698806833991  0.3750717734426024
  0.3335673187768092  0.0667866571510149  0.8745800247327616
  0.3332680293701403  0.2665332046522045  0.3747878085372164
  0.3332539033183067  0.2665606662558239  0.8750020033958584
  0.3333140054062674  0.4666269779678847  0.3748331253745164
  0.3333192186122350  0.4666388272255529  0.8749993978670692
  0.3333139597114219  0.6666844385497309  0.3748322512829778
  0.3333194067429585  0.6666878697486798  0.8749989070758059
  0.3332675390690851  0.8667318500776746  0.3747860910972248
  0.3332542341917471  0.8666999875138980  0.8750011427822451
  0.5333496031730960  0.0666620040138788  0.3748238137852445
  0.5332693861609605  0.0666314895562287  0.8749227537184834
  0.5333501474652322  0.2666849959484753  0.3748243062007972
  0.5332688239158966  0.2666441397103084  0.8749228522314887
  0.5333395175312815  0.4666599053368219  0.3748256551377325
  0.5333368898780372  0.4666702450812279  0.8749876743767813
  0.5333719542708805  0.6666846620867835  0.3748319505281713
  0.5333690568434788  0.6666883423121833  0.8749990005362488
  0.5333392649825422  0.8666767470741454  0.3748250389424080
  0.5333375666175217  0.8666741505464021  0.8749874630838954
  0.7333140676935233  0.0666618652893409  0.3748232518842937
  0.7333626074758495  0.0666314240953676  0.8749221387446210
  0.7333331062899079  0.2666651744325237  0.3747888798274677
  0.7333355438858637  0.2666707163616431  0.8749280188551090
  0.7333147779120348  0.4666500820771881  0.3748225752008212
  0.7333614873724733  0.4667364963536396  0.8749214638620908
  0.7334660114069871  0.6667313294048719  0.3747847666588865
  0.7334454878195832  0.6667516151688572  0.8750004205378369
  0.7334659206571926  0.8667318650977228  0.3747851423940834
  0.7334460625947836  0.8667003784703945  0.8750008242231750
  0.9331292108403014  0.0668690118229250  0.3750702969671471
  0.9332177600390353  0.0667872165712844  0.8745779247724663
  0.9333355946147918  0.2666844629247918  0.3748237073676365
  0.9333749232928154  0.2666437240744538  0.8749218686141893
  0.9333359368901138  0.4666495352462384  0.3748225401302570
  0.9333745563244774  0.4667359543922818  0.8749210974265470
  0.9331303034243672  0.6662596618075949  0.3750671635795114
  0.9332165313755765  0.6664340662614331  0.8745760792602554
  0.9335823304041726  0.8667900131961986  0.3745911218050370
  0.9334344829113482  0.8667193065589720  0.8750675224086135
 
  0.00000000E+00  0.00000000E+00  0.00000000E+00
  0.00000000E+00  0.00000000E+00  0.00000000E+00
  0.00000000E+00  0.00000000E+00  0.00000000E+00
  0.00000000E+00  0.00000000E+00  0.00000000E+00
  0.00000000E+00  0.00000000E+00  0.00000000E+00
  0.00000000E+00  0.00000000E+00  0.00000000E+00
  0.00000000E+00  0.00000000E+00  0.00000000E+00
  0.00000000E+00  0.00000000E+00  0.00000000E+00
  0.00000000E+00  0.00000000E+00  0.00000000E+00
  0.00000000E+00  0.00000000E+00  0.00000000E+00
  0.00000000E+00  0.00000000E+00  0.00000000E+00
  0.00000000E+00  0.00000000E+00  0.00000000E+00
  0.00000000E+00  0.00000000E+00  0.00000000E+00
  0.00000000E+00  0.00000000E+00  0.00000000E+00
  0.00000000E+00  0.00000000E+00  0.00000000E+00
  0.00000000E+00  0.00000000E+00  0.00000000E+00
  0.00000000E+00  0.00000000E+00  0.00000000E+00
  0.00000000E+00  0.00000000E+00  0.00000000E+00
  0.00000000E+00  0.00000000E+00  0.00000000E+00
  0.00000000E+00  0.00000000E+00  0.00000000E+00
  0.00000000E+00  0.00000000E+00  0.00000000E+00
  0.00000000E+00  0.00000000E+00  0.00000000E+00
  0.00000000E+00  0.00000000E+00  0.00000000E+00
  0.00000000E+00  0.00000000E+00  0.00000000E+00
  0.00000000E+00  0.00000000E+00  0.00000000E+00
  0.00000000E+00  0.00000000E+00  0.00000000E+00
  0.00000000E+00  0.00000000E+00  0.00000000E+00
  0.00000000E+00  0.00000000E+00  0.00000000E+00
  0.00000000E+00  0.00000000E+00  0.00000000E+00
  0.00000000E+00  0.00000000E+00  0.00000000E+00
  0.00000000E+00  0.00000000E+00  0.00000000E+00
  0.00000000E+00  0.00000000E+00  0.00000000E+00
  0.00000000E+00  0.00000000E+00  0.00000000E+00
  0.00000000E+00  0.00000000E+00  0.00000000E+00
  0.00000000E+00  0.00000000E+00  0.00000000E+00
  0.00000000E+00  0.00000000E+00  0.00000000E+00
  0.00000000E+00  0.00000000E+00  0.00000000E+00
  0.00000000E+00  0.00000000E+00  0.00000000E+00
  0.00000000E+00  0.00000000E+00  0.00000000E+00
  0.00000000E+00  0.00000000E+00  0.00000000E+00
  0.00000000E+00  0.00000000E+00  0.00000000E+00
  0.00000000E+00  0.00000000E+00  0.00000000E+00
  0.00000000E+00  0.00000000E+00  0.00000000E+00
  0.00000000E+00  0.00000000E+00  0.00000000E+00
  0.00000000E+00  0.00000000E+00  0.00000000E+00
  0.00000000E+00  0.00000000E+00  0.00000000E+00
  0.00000000E+00  0.00000000E+00  0.00000000E+00
  0.00000000E+00  0.00000000E+00  0.00000000E+00
  0.00000000E+00  0.00000000E+00  0.00000000E+00
  0.00000000E+00  0.00000000E+00  0.00000000E+00
  0.00000000E+00  0.00000000E+00  0.00000000E+00
  0.00000000E+00  0.00000000E+00  0.00000000E+00
  0.00000000E+00  0.00000000E+00  0.00000000E+00
  0.00000000E+00  0.00000000E+00  0.00000000E+00
  0.00000000E+00  0.00000000E+00  0.00000000E+00
  0.00000000E+00  0.00000000E+00  0.00000000E+00
  0.00000000E+00  0.00000000E+00  0.00000000E+00
  0.00000000E+00  0.00000000E+00  0.00000000E+00
  0.00000000E+00  0.00000000E+00  0.00000000E+00
  0.00000000E+00  0.00000000E+00  0.00000000E+00
  0.00000000E+00  0.00000000E+00  0.00000000E+00
  0.00000000E+00  0.00000000E+00  0.00000000E+00
  0.00000000E+00  0.00000000E+00  0.00000000E+00
  0.00000000E+00  0.00000000E+00  0.00000000E+00
  0.00000000E+00  0.00000000E+00  0.00000000E+00
  0.00000000E+00  0.00000000E+00  0.00000000E+00
  0.00000000E+00  0.00000000E+00  0.00000000E+00
  0.00000000E+00  0.00000000E+00  0.00000000E+00
  0.00000000E+00  0.00000000E+00  0.00000000E+00
  0.00000000E+00  0.00000000E+00  0.00000000E+00
  0.00000000E+00  0.00000000E+00  0.00000000E+00
  0.00000000E+00  0.00000000E+00  0.00000000E+00
  0.00000000E+00  0.00000000E+00  0.00000000E+00
  0.00000000E+00  0.00000000E+00  0.00000000E+00
  0.00000000E+00  0.00000000E+00  0.00000000E+00
  0.00000000E+00  0.00000000E+00  0.00000000E+00
  0.00000000E+00  0.00000000E+00  0.00000000E+00
  0.00000000E+00  0.00000000E+00  0.00000000E+00
  0.00000000E+00  0.00000000E+00  0.00000000E+00
  0.00000000E+00  0.00000000E+00  0.00000000E+00
  0.00000000E+00  0.00000000E+00  0.00000000E+00
  0.00000000E+00  0.00000000E+00  0.00000000E+00
  0.00000000E+00  0.00000000E+00  0.00000000E+00
  0.00000000E+00  0.00000000E+00  0.00000000E+00
  0.00000000E+00  0.00000000E+00  0.00000000E+00
  0.00000000E+00  0.00000000E+00  0.00000000E+00
  0.00000000E+00  0.00000000E+00  0.00000000E+00
  0.00000000E+00  0.00000000E+00  0.00000000E+00
  0.00000000E+00  0.00000000E+00  0.00000000E+00
  0.00000000E+00  0.00000000E+00  0.00000000E+00
  0.00000000E+00  0.00000000E+00  0.00000000E+00
  0.00000000E+00  0.00000000E+00  0.00000000E+00
  0.00000000E+00  0.00000000E+00  0.00000000E+00
  0.00000000E+00  0.00000000E+00  0.00000000E+00
  0.00000000E+00  0.00000000E+00  0.00000000E+00
  0.00000000E+00  0.00000000E+00  0.00000000E+00
  0.00000000E+00  0.00000000E+00  0.00000000E+00
  0.00000000E+00  0.00000000E+00  0.00000000E+00
  0.00000000E+00  0.00000000E+00  0.00000000E+00
  0.00000000E+00  0.00000000E+00  0.00000000E+00
  0.00000000E+00  0.00000000E+00  0.00000000E+00
  0.00000000E+00  0.00000000E+00  0.00000000E+00
  0.00000000E+00  0.00000000E+00  0.00000000E+00
  0.00000000E+00  0.00000000E+00  0.00000000E+00
  0.00000000E+00  0.00000000E+00  0.00000000E+00
  0.00000000E+00  0.00000000E+00  0.00000000E+00
  0.00000000E+00  0.00000000E+00  0.00000000E+00
  0.00000000E+00  0.00000000E+00  0.00000000E+00
  0.00000000E+00  0.00000000E+00  0.00000000E+00