 SiC                                    
   1.00000000000000     
    15.4057957377036647   -0.0000000382193966   -0.0000002051022114
    -7.7028978667544488   13.3418096896953831   -0.0000013471004895
    -0.0000001472167687   -0.0000070821736455   20.1710097264644972
   C    Si
   200   199
Direct
  0.9948523297851065  0.0051512753004830  0.0913985359824454
  0.9999933035525209  0.0000023033602362  0.5934316741246637
  0.0003362285133343  0.2006956509115776  0.0937434046522441
  0.0000065166288702  0.2000345728251951  0.5935669263221450
  0.0000633169124352  0.4000335283362688  0.0936264062173842
  0.9999982762051413  0.3999966010995697  0.5935637208265867
  0.0003364512786113  0.5996447938145070  0.0937410059100650
  0.0000068106886748  0.5999674895662355  0.5935639417322891
  0.9948542851569607  0.7897086342276823  0.0913983029273181
  0.9999934896019773  0.7999872340810634  0.5934297413348797
  0.2102992234831233  0.0051514444710327  0.0913986084028385
  0.2000086996507598  0.0000022810935900  0.5934315484514050
  0.2002458046132487  0.2004918760354041  0.0936638531470249
  0.1999980529375945  0.1999964617905170  0.5934812796343811
  0.2001174226798808  0.4001654691307589  0.0936610018513613
  0.2000103141125380  0.4000111133295278  0.5935577560381836
  0.2001175941404634  0.5999560490164595  0.0936599496750031
  0.2000105601079515  0.5999946020973946  0.5935564329915460
  0.2002461274794581  0.7997580815339761  0.0936620747385396
  0.1999984156409330  0.7999974759859738  0.5934791025391881
  0.4003598418607158  0.9996677703638794  0.0937430868984940
  0.4000281905516921  0.9999886592017315  0.5935664873361709
  0.4003595423914376  0.2006959273408384  0.0937433478450962
  0.4000279705949123  0.2000346790343338  0.5935668131942655
  0.4000480365230480  0.4001656618695494  0.0936609571709816
  0.4000007119109393  0.4000112657220911  0.5935577060528062
  0.4000015819952387  0.6000030552391133  0.0936373438956820
  0.3999985466813614  0.5999970290083620  0.5935781408182311
  0.4000483901873779  0.7998868536506712  0.0936606434825257
  0.4000010648871218  0.7999850415547225  0.5935571619725535
  0.5999706154474544  0.9999406743107525  0.0936274638412539
  0.5999986329552257  0.9999968378883586  0.5935649510558195
  0.5999111346315913  0.1999573728062716  0.0936281531776746
  0.6000118779797643  0.2000032976323181  0.5935732711077508
  0.5999704400686011  0.4000338560928745  0.0936263568981411
  0.5999984924542300  0.3999968610892168  0.5935636777542256
  0.5998386887820498  0.5999563456502098  0.0936598914094170
  0.5999841924283218  0.5999948735442943  0.5935563724650506
  0.5998388904039201  0.7998869932921382  0.0936606286882006
  0.5999842801580936  0.7999851605644832  0.5935571510022534
  0.7993084078174496  0.9996677702449815  0.0937431241068408
  0.7999605884882993  0.9999886723702701  0.5935665904298382
  0.8000464921908962  0.1999572547145792  0.0936282078100789
  0.7999916762314485  0.2000032011110101  0.5935733068003406
  0.8000464250739933  0.4000927151310889  0.0936268561635824
  0.7999917348855836  0.3999833102109116  0.5935716792521822
  0.7993085441007051  0.5996451532894292  0.0937409859256563
  0.7999606935216717  0.5999676815804633  0.5935639316080036
  0.7995121327769337  0.7997583049483918  0.0936620874544124
  0.7999989934033646  0.7999976199188270  0.5934791392127998
  0.9996595669618301  0.0003215831739312  0.3435788288653506
  0.0000058040038885  0.0000142223423397  0.8433708875824346
  0.9999313277063748  0.2001021560642346  0.3436102536065651
  0.0000727330607524  0.2000955565111327  0.8434270979605885
  0.9999581491742157  0.3999690495256062  0.3436179989437156
  0.0000038160519454  0.4000114462242338  0.8435836308074696
  0.9999308135481934  0.5998092528209995  0.3436075646368478
  0.0000726023366291  0.5999967983187350  0.8434244555485654
  0.9996590681933372  0.7993184090123089  0.3435775844730662
  0.0000058030905302  0.8000118877779193  0.8433690075066459
  0.2006618960262550  0.0003216594951675  0.3435786696213708
  0.2000081919348881  0.0000142501598287  0.8433707598105805
  0.2000278906326231  0.2000560997519165  0.3436227873247318
  0.2000063408192736  0.2000129336710776  0.8434869129671076
  0.1999878826056943  0.3999949675534321  0.3436236047591406
  0.2000040249362883  0.4000010533891249  0.8435924549632591
  0.1999879231822142  0.5999733790078842  0.3436223598337039
  0.2000040134728253  0.6000218887160200  0.8435911627274537
  0.2000279239990221  0.7999529741186692  0.3436206779730656
  0.2000062279185682  0.8000131661667722  0.8434847669534362
  0.4001711900224279  0.0000502898638804  0.3436098184091598
  0.4000227351555415  0.9999466592235224  0.8434267225100427
  0.4001708501930515  0.2001023677674084  0.3436102194034190
  0.4000227726259162  0.2000956909218924  0.8434270877761725
  0.4000070650579666  0.3999951613292925  0.3436236117055218
  0.3999970379578794  0.4000012340198065  0.8435924615295323
  0.3999937601848952  0.5999873838276748  0.3436195850940955
  0.4000063059179274  0.6000124345678955  0.8436075684552202
  0.4000076219395363  0.7999934488837755  0.3436230220233660
  0.3999969956663086  0.8000147030821714  0.8435918613393708
  0.6000119190969773  0.0000233812011255  0.3436190560788411
  0.6000077532253260  0.0000150533230148  0.8435847704189768
  0.6000239248245107  0.2000025293109834  0.3435762709529990
  0.5999891518614269  0.2000041226684432  0.8435817282000394
  0.6000110673543703  0.3999693379536317  0.3436180566270781
  0.6000078079061919  0.4000117229290122  0.8435836879832449
  0.5999856265681395  0.5999736537695789  0.3436224050914747
  0.6000180658167037  0.6000221495741689  0.8435912111512860
  0.5999861921269475  0.7999935601282426  0.3436230592961855
  0.6000180786373548  0.8000148025844684  0.8435919045126355
  0.7998793005015181  0.0000502751416138  0.3436099068176418
  0.7999240250422612  0.9999466454620256  0.8434267766818530
  0.7999788081931123  0.2000024069600930  0.3435762595298466
  0.8000151827493549  0.2000040029051862  0.8435817250896581
  0.7999782870935268  0.3999564934560990  0.3435748672173936
  0.8000151450586769  0.4000301963647274  0.8435802759363772
  0.7998784312722372  0.5998094452674956  0.3436076198992760
  0.7999241597927234  0.5999969637184019  0.8434244979301065
  0.7999250024796085  0.7999531082975326  0.3436208016525575
  0.8000068602636786  0.8000132534654903  0.8434848537640767
  0.0668236963872586  0.1338655664604525  0.2190242630141910
  0.0666814228587676  0.1333490633880245  0.7187884180533652
  0.0666958907236253  0.3334723173774692  0.2189703928252342
  0.0666967644594012  0.3333856543695117  0.7188556204901660
  0.0666956037835749  0.5332124947673522  0.2189689816409409
  0.0666965245249741  0.5333220539283553  0.7188540183396078
  0.0668230847202865  0.7329465604490785  0.2190220747926496
  0.0666810446326968  0.7333434329634033  0.7187856818601633
  0.0666622349507178  0.9333243860422729  0.2257135496374569
  0.0666705770395137  0.9333410114276871  0.7187146810231320
  0.2670423050491812  0.1338656715638871  0.2190243242527687
  0.2666680375283265  0.1333491856191964  0.7187884135501090
  0.2667054474704991  0.3334103747052596  0.2189757044851817
  0.2666749306753745  0.3333493547790786  0.7188581883240976
  0.2666901043688250  0.5333396059237547  0.2189582374913042
  0.2666778320285573  0.5333441919799867  0.7189026749055812
  0.2667052528995790  0.7332842110423311  0.2189744149057472
  0.2666744237612911  0.7333361787430731  0.7188566068466046
  0.2670422875419878  0.9331660028731468  0.2190233629571867
  0.2666677137859774  0.9333300618729333  0.7187874443876144
  0.4666514985953133  0.1333207999142816  0.2189259809420128
  0.4666749352729472  0.1333429975573891  0.7188613839196241
  0.4667765557449961  0.3334722980069734  0.2189705179982311
  0.4666890471891214  0.3333856391588624  0.7188557489880564
  0.4666497967765725  0.5333394808153509  0.2189582575905006
  0.4666666439124684  0.5333440600112861  0.7189026962422361
  0.4666499049227975  0.7332996405470692  0.2189584107828700
  0.4666663435870320  0.7333325337244111  0.7189027789776378
  0.4667767010261942  0.9332940820916491  0.2189706280681055
  0.4666885528567113  0.9333138295624051  0.7188558549912535
  0.6666596901548966  0.1333198733368133  0.2189115467854235
  0.6666678346390438  0.1333361401025922  0.7189004268018214
  0.6666593868162236  0.3333294902127176  0.2189106547577220
  0.6666680009104872  0.3333425464339358  0.7188993350711429
  0.6665166659410082  0.5332122724490667  0.2189691041010639
  0.6666252981492570  0.5333218486435948  0.7188541414437858
  0.6665788646006715  0.7332839044095357  0.2189744353722762
  0.6666616385185136  0.7333358674678409  0.7188566252383042
  0.6665171367426856  0.9332939314884945  0.2189706230734338
  0.6666250297863574  0.9333136308195378  0.7188558506551346
  0.8666690501010672  0.1333205897502036  0.2189258805161959
  0.8666678113026023  0.1333428032800104  0.7188612846411152
  0.8666696208841975  0.3333294952766923  0.2189105734771925
  0.8666740812138853  0.3333425492782486  0.7188992546844977
  0.8666683893647028  0.5333372400120765  0.2189235511380974
  0.8666677178952852  0.5333358795681256  0.7188585903423401
  0.8661231749858169  0.7329462764054092  0.2190221426403956
  0.8666621582430556  0.7333432319361596  0.7187857141445615
  0.8661235204466681  0.9331656576798913  0.2190233697548276
  0.8666622413845403  0.9333297584232934  0.7187874817857496
  0.1333248641072223  0.0666495980826142  0.4687162343793552
  0.1333410762290923  0.0666819582977700  0.9686470533178955
  0.1333012135076819  0.2666632414739689  0.4688963512338087
  0.1333581088535115  0.2666256874683477  0.9689282351669742
  0.1333151924126694  0.4666497820453601  0.4689088646203259
  0.1333652275554532  0.4666907892875968  0.9689420644985761
  0.1333014554444170  0.6666222684692910  0.4688939140885215
  0.1333584064993736  0.6667486777362375  0.9689260544124146
  0.1333250665335184  0.8666592330393239  0.4687147275326936
  0.1333413976499460  0.8666751869581181  0.9686456369285529
  0.3335214160169550  0.0667525302376701  0.4689677407468246
  0.3334512538672306  0.0667333902115566  0.9684086476652003
  0.3333617660748646  0.2666630121404137  0.4688963184377196
  0.3332673670314215  0.2666254984280707  0.9689282176273266
  0.3333294853839035  0.4666594429243541  0.4689105351481254
  0.3333356050448646  0.4666716613366581  0.9689451716142444
  0.3333295910473240  0.6666548627845893  0.4689098058522584
  0.3333355488275265  0.6666800827974085  0.9689445748382178
  0.3333619094765395  0.8666828515709415  0.4688951253050496
  0.3332673274353528  0.8666574505389321  0.9689271826668905
  0.5333810499271520  0.0666858672254079  0.4689118607856439
  0.5332459360289167  0.0665991691576188  0.9689298632819797
  0.5333810998939671  0.2666787596200783  0.4689115836148545
  0.5332462555758831  0.2666621393488374  0.9689295867554938
  0.5333343197883317  0.4666495531002237  0.4689087446916866
  0.5333253257698684  0.4666905782590064  0.9689419396410697
  0.5333247840114846  0.6666548554450793  0.4689097238515493
  0.5333440815582372  0.6666800820808843  0.9689444973590107
  0.5333343382813662  0.8666691753615091  0.4689092433881172
  0.5333248913218643  0.8666502295155621  0.9689425000392357
  0.7333047410845729  0.0666860620014940  0.4689118609116860
  0.7333532215997564  0.0665993789998405  0.9689298684464545
  0.7333278582932402  0.2666555897377840  0.4688883778518392
  0.7333386004756121  0.2666770282141151  0.9689418918808042
  0.7333048705682023  0.4666024725084288  0.4689098589499189
  0.7333539726352023  0.4667699927189928  0.9689280761515259
  0.7333209648846502  0.6666222493160987  0.4688937915526895
  0.7333904731210131  0.6667486905511451  0.9689259328543074
  0.7333208651805202  0.8666830559124064  0.4688950349002759
  0.7333901379131691  0.8666576643336115  0.9689270793949143
  0.9332312813637037  0.0667528765440943  0.4689677757447120
  0.9332823317219583  0.0667336847253165  0.9684086436021140
  0.9332978531592948  0.2666790792680428  0.4689116022595426
  0.9334160995511137  0.2666624645559902  0.9689296149451472
  0.9332979893896987  0.4666026171011124  0.4689098774090171
  0.9334164447959078  0.4667701032203100  0.9689281003650934
  0.9332314869324857  0.6664624596929893  0.4689650852991414
  0.9332833517003383  0.6665662181455939  0.9684067151224217
  0.9333345258611657  0.8666593466075185  0.4687147352798380
  0.9333341714570227  0.8666752823212787  0.9686456032309434
  0.0000005537778593  0.9999842482191396  0.4995992404009243
  0.0005191960451227  0.9994954575163917  0.0005626466657127
  0.9999599366458363  0.1999856816635452  0.4998087213292281
  0.9999687250656853  0.1996169128465906  0.0001083039497459
  0.9999645884147871  0.3999749208380255  0.4998092623715172
  0.9999756022585138  0.3999955888508940  0.9999534373854515
  0.9999600943346177  0.5999593525921804  0.4998057954129736
  0.9999690412466579  0.6003674468643708  0.0001059255068607
  0.0000006751377905  0.8000011622952795  0.4995973759503252
  0.0005203448122384  0.8010404747866450  0.0005624262000471
  0.1999836633518189  0.9999841396750958  0.4995991945743988
  0.1989763131998781  0.9994953749922258  0.0005627025997455
  0.1999327251714187  0.1998655688495526  0.4996865724987170
  0.1997851291898241  0.1995703357837647  0.0001192477148530
  0.1999652002340700  0.3999486659554669  0.4997989989891657
  0.1999216418445140  0.3998571195200931  0.9999687267366629
  0.1999652514710964  0.6000021020951521  0.4997976679783905
  0.1999216029322985  0.6000799008528414  0.9999676638520117
  0.1999328173417137  0.8000521327783006  0.4996844150839966
  0.1997851170049817  0.8002296122505722  0.0001174764933530
  0.4000255463292771  0.0000248069229270  0.4998083047605022
  0.3996478257439867  0.0000456095443191  0.0001079979669373
  0.4000256181047123  0.1999855061534568  0.4998086484856015
  0.3996481188644629  0.1996167858148933  0.0001082537021978
  0.3999832256951606  0.3999485844798664  0.4997989421375751
  0.3999352878150195  0.3998570677199957  0.9999686756491319
  0.3999950602470281  0.5999904419446588  0.4998181636712890
  0.4000048948723233  0.6000100774906127  0.9999374694380166
  0.3999831881127611  0.8000200157917168  0.4997983670890392
  0.3999349038874339  0.8000929177073398  0.9999683355323218
  0.6000101347084675  0.0000203993790266  0.4998104429290613
  0.6000193248765227  0.0000387216991866  0.9999544600544694
  0.6000075636590817  0.1999961039491647  0.4998121083605375
  0.5998813803707972  0.1999478315997839  0.9999292035995501
  0.6000103118773686  0.3999748116016300  0.4998092026094505
  0.6000200119137298  0.3999954917405579  0.9999533646156759
  0.6000367398647555  0.6000020835460003  0.4997975709072630
  0.6001582379289830  0.6000798988458895  0.9999675697207976
  0.6000366358749002  0.8000200822614452  0.4997983267506523
  0.6001579033267014  0.8000929986958267  0.9999682919322191
  0.7999992815613813  0.0000249617955579  0.4998083408114423
  0.8003978966071824  0.0000457582638635  0.0001080110929462
  0.7999886290827243  0.1999962053698089  0.4998121342157779
  0.8000665809044406  0.1999479298281820  0.9999292436953716
  0.7999887505521966  0.3999773110070020  0.4998105249291135
  0.8000669117765803  0.4001335963884982  0.9999279006627565
  0.7999994548787671  0.5999593461002231  0.4998057587630245
  0.8003986431254931  0.6003674802950160  0.0001058882535888
  0.8001193956679710  0.8000522321455232  0.4996843871994162
  0.8004446479773742  0.8002297278679882  0.0001174434893686
  0.0001516529962561  0.9998357734722711  0.2485568889720044
  0.0000264494012726  0.9999860937883581  0.7498380762950344
  0.0001195962594595  0.1999637133881415  0.2497247013756596
  0.0000548156705997  0.2000242695376644  0.7498437866332713
  0.0000509837004274  0.4000194923034012  0.2497987550719981
  0.0000263118294832  0.4000195594358347  0.7499175821739393
  0.0001189973822766  0.6001432300922582  0.2497221254694146
  0.0000546354913944  0.6000431579495108  0.7498410297797828
  0.0001509660173852  0.8003020855151169  0.2485563018211611
  0.0000263320950519  0.8000527510395901  0.7498362307488092
  0.1996841740006456  0.9998358764246409  0.2485568287860372
  0.1999597562190968  0.9999861926824029  0.7498380173018596
  0.1998830182055568  0.1997658113523144  0.2497859052977645
  0.1999878748115982  0.1999755387913440  0.7498789882158416
  0.1999954463811900  0.3999478097880868  0.2498025935961242
  0.2000039906629385  0.3999914848213574  0.7499160319965787
  0.1999951841379289  0.6000355122849051  0.2498014122668556
  0.2000037122583223  0.6000246880496606  0.7499147317613423
  0.1998825552791426  0.8001048660744199  0.2497839045859166
  0.1999873919066091  0.8000245775262989  0.7498768360927620
  0.3998441597261407  0.9998688683072405  0.2497243784850767
  0.3999691689233640  0.9999573149344438  0.7498434752039480
  0.3998442484306170  0.1999638270897309  0.2497247468779299
  0.3999695597619518  0.2000243675834804  0.7498438268861677
  0.3999525636749735  0.3999478176165785  0.2498026303460485
  0.3999876966973085  0.3999914817847511  0.7499160656910606
  0.3999961690553526  0.5999921230679537  0.2498142258527243
  0.4000039781317447  0.6000077410424581  0.7499243929084489
  0.3999524359745509  0.7999929358279408  0.2498021100130147
  0.3999870523586880  0.8000076852797861  0.7499154833287741
  0.5999685980914868  0.9999373374708302  0.2497998625074048
  0.5999925901670382  0.9999852813341110  0.7499188236714366
  0.5998844871357861  0.1999365264531155  0.2497361431360242
  0.5999761413094067  0.1999942696711022  0.7499196957370513
  0.5999683898593308  0.4000194699634202  0.2497988498365843
  0.5999931565817563  0.4000195494104853  0.7499176725421357
  0.6000403408287753  0.6000354122972743  0.2498014713729649
  0.6000209878346842  0.6000245906614101  0.7499147978642485
  0.6000405199748298  0.7999928564942825  0.2498021315251895
  0.6000206424957649  0.8000075893469686  0.7499155166934298
  0.8000245875144770  0.9998687242928100  0.2497244038012707
  0.7999880395900215  0.9999571676719321  0.7498434874243762
  0.8000517948004995  0.1999364536700821  0.2497360960706855
  0.8000178951813269  0.1999942023032845  0.7499196618907050
  0.8000514708798976  0.4001032589314484  0.2497347415906271
  0.8000180349831030  0.4000363696165089  0.7499181664189700
  0.8000239979828684  0.6001431219415996  0.2497221969039905
  0.7999883180039536  0.6000430922282577  0.7498410814994396
  0.8002221896225196  0.8001046932863863  0.2497839872047633
  0.8000370834771947  0.8000244212062617  0.7498768962346876
  0.0671193127479036  0.1324745707029027  0.1251237844254566
  0.0666647235134447  0.1332952559727083  0.6248063916282176
  0.0667053099849338  0.3334172632190688  0.1249044336106130
  0.0666774996572833  0.3333429897884559  0.6248784837750420
  0.0667052564364880  0.5332904811499718  0.1249030095797250
  0.0666775248789088  0.5333320670146393  0.6248767847803089
  0.0671191479146684  0.7346472301081470  0.1251215643437974
  0.0666647555009528  0.7333670926948219  0.6248035550446429
  0.0666657601719043  0.9333317102060994  0.6247459234003095
  0.2653553290573806  0.1324747584082618  0.1251238038587467
  0.2666303896260625  0.1332952906789184  0.6248063445436578
  0.2666042788789664  0.3332086045997845  0.1248927452857225
  0.2666454229871599  0.3332909442630487  0.6248552890974673
  0.2666702392482128  0.5333363573247940  0.1248942495712865
  0.2666614790504886  0.5333294880875266  0.6248947282551913
  0.2666042727793540  0.7333980102067561  0.1248914649895624
  0.2666453532810077  0.7333519477234248  0.6248536574122560
  0.2653552078879761  0.9328826192246273  0.1251228751445302
  0.2666303577629459  0.9333325714171494  0.6248053582206957
  0.4661247641358915  0.1330635030966826  0.1247870815707768
  0.4666540039602260  0.1333255882679128  0.6248742820995646
  0.4667120750758655  0.3334174753461158  0.1249044508424346
  0.4666655195317864  0.3333431094989678  0.6248784859423506
  0.4666662518716770  0.5333364688430998  0.1248942393422737
  0.4666680882977809  0.5333295736306969  0.6248947171188852
  0.4666663111640017  0.7333323763838128  0.1248944208579193
  0.4666679783437090  0.7333357910575456  0.6248948208596161
  0.4667120555553325  0.9332970045014475  0.1249046534353004
  0.4666653304576025  0.9333195236156921  0.6248786682289440
  0.6666412580714290  0.1332823467117475  0.1248275236392689
  0.6666629386224405  0.1333257063388068  0.6248979152709682
  0.6666412034159109  0.3333610666913880  0.1248265664393014
  0.6666630743187831  0.3333343886958644  0.6248967327777297
  0.6665853686828993  0.5332906753393444  0.1249030326213619
  0.6666545847782599  0.5333322077173175  0.6248768147345795
  0.6667939454686267  0.7333981378309513  0.1248914737686247
  0.6667066624245098  0.7333520307764207  0.6248536749895588
  0.6665853058688792  0.9332970447287040  0.1249046583502832
  0.6666543550303120  0.9333195154020107  0.6248786963642593
  0.8669387913214295  0.1330633870775420  0.1247870892992011
  0.8666715898384363  0.1333254899999195  0.6248743001959991
  0.8667198456147013  0.3333609733116742  0.1248265584293878
  0.8666713045492956  0.3333342984169232  0.6248967205757894
  0.8669387167351328  0.5338774981644886  0.1247846509271170
  0.8666717260353194  0.5333435438724684  0.6248714117668974
  0.8675280868085218  0.7346473680244613  0.1251216051808264
  0.8667022380829006  0.7333671710548633  0.6248035727522064
  0.8675276061941660  0.9328826042805338  0.1251228966026228
  0.8667021487017987  0.9333325705872004  0.6248054232292507
  0.1331618381435030  0.0663238066939175  0.3743863583873440
  0.1333002157450502  0.0666005680050037  0.8750182440391460
  0.1332684995737048  0.2665343749305827  0.3747894289303250
  0.1333182241117028  0.2665729788919833  0.8750082782744889
  0.1333062908820481  0.4666434379017836  0.3748229782485950
  0.1333355733342666  0.4666776533304087  0.8749880292508044
  0.1332682692063695  0.6667146292942104  0.3747869053929413
  0.1333181950566999  0.6667650481717908  0.8750059315492271
  0.1331617150161233  0.8668185989558749  0.3743848876863929
  0.1333001261200693  0.8667196357106953  0.8750167474486377
  0.3334009310810397  0.0666909863819854  0.3748076787561785
  0.3333324343569029  0.0666761045597326  0.8748379609100512
  0.3332657501190116  0.2665344464278691  0.3747894036317750
  0.3332546675226929  0.2665730543253937  0.8750082680165887
  0.3333076959353832  0.4666155136669072  0.3748294750032599
  0.3333230074044496  0.4666460959383519  0.8749893877957825
  0.3333077336209980  0.6666732908017106  0.3748286959926133
  0.3333228526504091  0.6666960818136340  0.8749887012036179
  0.3332657680024719  0.8667123697099235  0.3747881180917876
  0.3332543976166244  0.8667009960597439  0.8750070846694655
  0.5333124841089233  0.0666474984563767  0.3748190750015353
  0.5332380442580105  0.0666263465626230  0.8749959449304883
  0.5333123345817936  0.2666458122618204  0.3748188199379840
  0.5332382955046080  0.2666312639715963  0.8749956720771366
  0.5333371735044219  0.4666435771958034  0.3748229482861187
  0.5333421338148440  0.4666777874493153  0.8749879927302480
  0.5333656236838855  0.6666733857357057  0.3748286835671109
  0.5333733293523114  0.6666961719178538  0.8749886914185501
  0.5333374847320476  0.8666748040113873  0.3748233760181592
  0.5333417386268090  0.8666832886443537  0.8749884881674245
  0.7333352196692943  0.0666474938574719  0.3748190983656421
  0.7333885019151405  0.0666263530144397  0.8749959734282413
  0.7333268988957891  0.2666536204972573  0.3747917137082523
  0.7333400167601686  0.2666798395392440  0.8749856292233366
  0.7333347550412149  0.4666679729764802  0.3748171189782356
  0.7333889102994269  0.4667819733525282  0.8749941028007742
  0.7334464053301616  0.6667147619605657  0.3747869061478343
  0.7334469123419745  0.6667651681559758  0.8750059242258674
  0.7334467181998632  0.8667124766804370  0.3747881436801300
  0.7334467341033236  0.8667010989015693  0.8750070881229325
  0.9332900448535706  0.0666909529593216  0.3748077493422975
  0.9333436201458719  0.0666761010950085  0.8748379934827238
  0.9333334756230148  0.2666457039508867  0.3748188306177773
  0.9333929847600920  0.2666311794279262  0.8749956931739591
  0.9333332114098297  0.4666678700343740  0.3748171059927379
  0.9333930864842473  0.4667818809010530  0.8749940960449308
  0.9332894533125370  0.6665789494122408  0.3748051556869643
  0.9333439866962125  0.6666880286454751  0.8748356422177511
  0.9336567696123083  0.8668186069403199  0.3743849399172913
  0.9334193843160972  0.8667196413704102  0.8750167701440666
 
  0.00000000E+00  0.00000000E+00  0.00000000E+00
  0.00000000E+00  0.00000000E+00  0.00000000E+00
  0.00000000E+00  0.00000000E+00  0.00000000E+00
  0.00000000E+00  0.00000000E+00  0.00000000E+00
  0.00000000E+00  0.00000000E+00  0.00000000E+00
  0.00000000E+00  0.00000000E+00  0.00000000E+00
  0.00000000E+00  0.00000000E+00  0.00000000E+00
  0.00000000E+00  0.00000000E+00  0.00000000E+00
  0.00000000E+00  0.00000000E+00  0.00000000E+00
  0.00000000E+00  0.00000000E+00  0.00000000E+00
  0.00000000E+00  0.00000000E+00  0.00000000E+00
  0.00000000E+00  0.00000000E+00  0.00000000E+00
  0.00000000E+00  0.00000000E+00  0.00000000E+00
  0.00000000E+00  0.00000000E+00  0.00000000E+00
  0.00000000E+00  0.00000000E+00  0.00000000E+00
  0.00000000E+00  0.00000000E+00  0.00000000E+00
  0.00000000E+00  0.00000000E+00  0.00000000E+00
  0.00000000E+00  0.00000000E+00  0.00000000E+00
  0.00000000E+00  0.00000000E+00  0.00000000E+00
  0.00000000E+00  0.00000000E+00  0.00000000E+00
  0.00000000E+00  0.00000000E+00  0.00000000E+00
  0.00000000E+00  0.00000000E+00  0.00000000E+00
  0.00000000E+00  0.00000000E+00  0.00000000E+00
  0.00000000E+00  0.00000000E+00  0.00000000E+00
  0.00000000E+00  0.00000000E+00  0.00000000E+00
  0.00000000E+00  0.00000000E+00  0.00000000E+00
  0.00000000E+00  0.00000000E+00  0.00000000E+00
  0.00000000E+00  0.00000000E+00  0.00000000E+00
  0.00000000E+00  0.00000000E+00  0.00000000E+00
  0.00000000E+00  0.00000000E+00  0.00000000E+00
  0.00000000E+00  0.00000000E+00  0.00000000E+00
  0.00000000E+00  0.00000000E+00  0.00000000E+00
  0.00000000E+00  0.00000000E+00  0.00000000E+00
  0.00000000E+00  0.00000000E+00  0.00000000E+00
  0.00000000E+00  0.00000000E+00  0.00000000E+00
  0.00000000E+00  0.00000000E+00  0.00000000E+00
  0.00000000E+00  0.00000000E+00  0.00000000E+00
  0.00000000E+00  0.00000000E+00  0.00000000E+00
  0.00000000E+00  0.00000000E+00  0.00000000E+00
  0.00000000E+00  0.00000000E+00  0.00000000E+00
  0.00000000E+00  0.00000000E+00  0.00000000E+00
  0.00000000E+00  0.00000000E+00  0.00000000E+00
  0.00000000E+00  0.00000000E+00  0.00000000E+00
  0.00000000E+00  0.00000000E+00  0.00000000E+00
  0.00000000E+00  0.00000000E+00  0.00000000E+00
  0.00000000E+00  0.00000000E+00  0.00000000E+00
  0.00000000E+00  0.00000000E+00  0.00000000E+00
  0.00000000E+00  0.00000000E+00  0.00000000E+00
  0.00000000E+00  0.00000000E+00  0.00000000E+00
  0.00000000E+00  0.00000000E+00  0.00000000E+00
  0.00000000E+00  0.00000000E+00  0.00000000E+00
  0.00000000E+00  0.00000000E+00  0.00000000E+00
  0.00000000E+00  0.00000000E+00  0.00000000E+00
  0.00000000E+00  0.00000000E+00  0.00000000E+00
  0.00000000E+00  0.00000000E+00  0.00000000E+00
  0.00000000E+00  0.00000000E+00  0.00000000E+00
  0.00000000E+00  0.00000000E+00  0.00000000E+00
  0.00000000E+00  0.00000000E+00  0.00000000E+00
  0.00000000E+00  0.00000000E+00  0.00000000E+00
  0.00000000E+00  0.00000000E+00  0.00000000E+00
  0.00000000E+00  0.00000000E+00  0.00000000E+00
  0.00000000E+00  0.00000000E+00  0.00000000E+00
  0.00000000E+00  0.00000000E+00  0.00000000E+00
  0.00000000E+00  0.00000000E+00  0.00000000E+00
  0.00000000E+00  0.00000000E+00  0.00000000E+00
  0.00000000E+00  0.00000000E+00  0.00000000E+00
  0.00000000E+00  0.00000000E+00  0.00000000E+00
  0.00000000E+00  0.00000000E+00  0.00000000E+00
  0.00000000E+00  0.00000000E+00  0.00000000E+00
  0.00000000E+00  0.00000000E+00  0.00000000E+00
  0.00000000E+00  0.00000000E+00  0.00000000E+00
  0.00000000E+00  0.00000000E+00  0.00000000E+00
  0.00000000E+00  0.00000000E+00  0.00000000E+00
  0.00000000E+00  0.00000000E+00  0.00000000E+00
  0.00000000E+00  0.00000000E+00  0.00000000E+00
  0.00000000E+00  0.00000000E+00  0.00000000E+00
  0.00000000E+00  0.00000000E+00  0.00000000E+00
  0.00000000E+00  0.00000000E+00  0.00000000E+00
  0.00000000E+00  0.00000000E+00  0.00000000E+00
  0.00000000E+00  0.00000000E+00  0.00000000E+00
  0.00000000E+00  0.00000000E+00  0.00000000E+00
  0.00000000E+00  0.00000000E+00  0.00000000E+00
  0.00000000E+00  0.00000000E+00  0.00000000E+00
  0.00000000E+00  0.00000000E+00  0.00000000E+00
  0.00000000E+00  0.00000000E+00  0.00000000E+00
  0.00000000E+00  0.00000000E+00  0.00000000E+00
  0.00000000E+00  0.00000000E+00  0.00000000E+00
  0.00000000E+00  0.00000000E+00  0.00000000E+00
  0.00000000E+00  0.00000000E+00  0.00000000E+00
  0.00000000E+00  0.00000000E+00  0.00000000E+00
  0.00000000E+00  0.00000000E+00  0.00000000E+00
  0.00000000E+00  0.00000000E+00  0.00000000E+00
  0.00000000E+00  0.00000000E+00  0.00000000E+00
  0.00000000E+00  0.00000000E+00  0.00000000E+00
  0.00000000E+00  0.00000000E+00  0.00000000E+00
  0.00000000E+00  0.00000000E+00  0.00000000E+00
  0.00000000E+00  0.00000000E+00  0.00000000E+00
  0.00000000E+00  0.00000000E+00  0.00000000E+00
  0.00000000E+00  0.00000000E+00  0.00000000E+00
  0.00000000E+00  0.00000000E+00  0.00000000E+00
  0.00000000E+00  0.00000000E+00  0.00000000E+00
  0.00000000E+00  0.00000000E+00  0.00000000E+00
  0.00000000E+00  0.00000000E+00  0.00000000E+00
  0.00000000E+00  0.00000000E+00  0.00000000E+00
  0.00000000E+00  0.00000000E+00  0.00000000E+00
  0.00000000E+00  0.00000000E+00  0.00000000E+00
  0.00000000E+00  0.00000000E+00  0.00000000E+00
  0.00000000E+00  0.00000000E+00  0.00000000E+00
  0.00000000E+00  0.00000000E+00  0.00000000E+00