HSE_C                                   
   1.00000000000000     
    14.1786088942999999    0.0000000000000000    0.0000000000000000
     0.0000000000000000   14.1786088942999999    0.0000000000000000
     0.0000000000000000    0.0000000000000000   14.1786088942999999
   O    C 
     1   510
Selective dynamics
Direct
  0.9879855523939227  0.0120144476060773  0.0105135951988728   T   T   T
  0.0619096634079384  0.0664631192532070  0.0662990102015044   T   T   T
  0.0796993909551915  0.9203006090448085  0.9274458605513942   T   T   T
  0.9335368807467930  0.9380903365920616  0.0662990102015044   T   T   T
  0.9332909605510835  0.0667090394489165  0.9383070034821017   T   T   T
  0.1239519119176649  0.1240727907698087  0.9993510091094038   T   T   T
  0.1278275611862156  0.9969923261736398  0.8742079205878284   T   T   T
  0.9991654678661561  0.1271387882362518  0.1270238809224082   T   T   T
  0.0030076738263602  0.8721724388137844  0.8742079205878284   T   T   T
  0.1241005817003256  0.0001109207622179  0.1252805550096667   T   T   T
  0.8728612117637482  0.0008345321338439  0.1270238809224082   T   T   T
  0.8759272092301913  0.8760480880823351  0.9993510091094038   T   T   T
  0.1171802129894601  0.8828197870105399  0.0046627063415343   T   T   T
  0.0005861241716403  0.1240834297849176  0.8762902108174373   T   T   T
  0.8726219193887914  0.1273780806112086  0.0008267486102511   T   T   T
  0.8759165702150824  0.9994138758283597  0.8762902108174373   T   T   T
  0.9998890792377821  0.8758994182996744  0.1252805550096667   T   T   T
  0.1869514116620010  0.9377476077706177  0.0617045083950174   T   T   T
  0.9390120694705004  0.8124623294791036  0.9373141212062919   T   T   T
  0.0621101249720297  0.9378898750279703  0.1880025272993464   T   T   T
  0.0622393828793548  0.1875460211027971  0.9378477103308001   T   T   T
  0.0630832875907146  0.0604368939670366  0.8136094921842698   T   T   T
  0.1875376705208964  0.0609879305294996  0.9373141212062919   T   T   T
  0.9368295065075287  0.1888485447369348  0.0631120661718541   T   T   T
  0.9369152059359962  0.0630847940640038  0.1887402805278882   T   T   T
  0.0622523922293823  0.8130485883379990  0.0617045083950174   T   T   T
  0.9395631060329634  0.9369167124092854  0.8136094921842698   T   T   T
  0.8111514552630652  0.0631704934924713  0.0631120661718541   T   T   T
  0.8124539788972029  0.9377606171206452  0.9378477103308001   T   T   T
  0.9996589238285196  0.0003410761714804  0.2506538900406596   T   T   T
  0.0006825222878604  0.9993174777121396  0.7504252937447120   T   T   T
  0.0006821920888882  0.7500595653120641  0.9996123295622752   T   T   T
  0.7495506163475554  0.0002450097946038  0.0002716728723868   T   T   T
  0.9997549902053962  0.2504493836524446  0.0002716728723868   T   T   T
  0.2499404346879359  0.9993178079111118  0.9996123295622752   T   T   T
  0.0623661364791133  0.1887268542320513  0.1887023774413095   T   T   T
  0.1870655369429812  0.1871211643634680  0.0628123420100266   T   T   T
  0.1869808862149469  0.0632006622095318  0.1877147258579868   T   T   T
  0.9367993377904682  0.8130191137850531  0.1877147258579868   T   T   T
  0.1906591689781862  0.9362284641540484  0.8104608623941445   T   T   T
  0.0637715358459516  0.8093408310218138  0.8104608623941445   T   T   T
  0.8112731457679487  0.9376338635208867  0.1887023774413095   T   T   T
  0.8128788356365320  0.8129344630570188  0.0628123420100266   T   T   T
  0.9372951670217446  0.1870737449654882  0.8130278082490747   T   T   T
  0.8111885685630398  0.1888114314369602  0.9376617751351972   T   T   T
  0.8129262550345118  0.0627048329782554  0.8130278082490747   T   T   T
  0.2557229325922492  0.8781382494573364  0.8695375894681874   T   T   T
  0.1218617505426636  0.7442770674077508  0.8695375894681874   T   T   T
  0.8757586310319141  0.8748329223968057  0.7505553332290944   T   T   T
  0.8745146735819986  0.8752064900623751  0.2505342989645172   T   T   T
  0.8751564887207337  0.7501680846149981  0.1249158766994469   T   T   T
  0.1248030652431069  0.2502573662586371  0.1252264552733706   T   T   T
  0.2499349751120690  0.1245140506106779  0.8750083242633977   T   T   T
  0.1261409881653037  0.8738590118346963  0.7492379911817793   T   T   T
  0.8754859493893221  0.7500650248879310  0.8750083242633977   T   T   T
  0.1247935099376249  0.1254853264180014  0.2505342989645172   T   T   T
  0.8744906933720031  0.1255093066279969  0.2507057328445654   T   T   T
  0.7497426337413629  0.8751969347568931  0.1252264552733706   T   T   T
  0.7502305332298889  0.8750174144211016  0.8750774380493880   T   T   T
  0.2498319153850019  0.1248435112792663  0.1249158766994469   T   T   T
  0.1249825855788984  0.2497694667701111  0.8750774380493880   T   T   T
  0.1251670776031943  0.1242413689680859  0.7505553332290944   T   T   T
  0.8744607586645259  0.2507826496229342  0.1255250781271968   T   T   T
  0.7492173503770658  0.1255392413354741  0.1255250781271968   T   T   T
  0.8747668341168193  0.2502383475342995  0.8752328439413972   T   T   T
  0.8752444096966343  0.1247555903033657  0.7502815756109555   T   T   T
  0.2495616103805389  0.8748773430895653  0.1241750883463908   T   T   T
  0.7497616524657005  0.1252331658831807  0.8752328439413972   T   T   T
  0.1249571199067887  0.8750428800932113  0.2498951499855764   T   T   T
  0.1251226569104347  0.7504383896194611  0.1241750883463908   T   T   T
  0.3124210537838152  0.9366357429975736  0.9365476016339613   T   T   T
  0.1875184700681061  0.1870744060786080  0.8126730996796994   T   T   T
  0.0631613234011894  0.9368386765988106  0.6875146682427697   T   T   T
  0.0624185476028956  0.3127819440405162  0.0626634788379192   T   T   T
  0.3123234775222201  0.0621074607973782  0.0622080001751897   T   T   T
  0.8120797188108213  0.1879202811891787  0.1879073521931502   T   T   T
  0.6872180559594838  0.9375814523971044  0.0626634788379192   T   T   T
  0.0633642570024264  0.6875789462161848  0.9365476016339613   T   T   T
  0.9373384974625907  0.3127582757273188  0.9375978847904918   T   T   T
  0.0623610837057171  0.0627706315896575  0.3129155039944607   T   T   T
  0.9372293684103425  0.9376389162942829  0.3129155039944607   T   T   T
  0.9378922046465163  0.0621077953534837  0.6879125315677257   T   T   T
  0.1873509298098810  0.8126490701901190  0.1869160846769375   T   T   T
  0.8129255939213920  0.8124815299318939  0.8126730996796994   T   T   T
  0.9378925392026218  0.6876765224777799  0.0622080001751897   T   T   T
  0.6872417242726812  0.0626615025374093  0.9375978847904918   T   T   T
  0.0001315228454644  0.2495679770724308  0.7504134230950683   T   T   T
  0.2526077167796075  0.7473922832203925  0.0020344891551645   T   T   T
  0.9997225210840526  0.2507166284005535  0.2506850692092115   T   T   T
  0.9999017021298258  0.7489311491235853  0.7484018015985612   T   T   T
  0.2496829042445867  0.2496369098518159  0.9998996218893410   T   T   T
  0.2496698225951235  0.9999291958648158  0.2497450571614337   T   T   T
  0.7492227662056408  0.2507772337943592  0.0002580491237296   T   T   T
  0.7492833715994465  0.0002774789159474  0.2506850692092115   T   T   T
  0.2510688508764147  0.0000982978701742  0.7484018015985612   T   T   T
  0.7504320229275692  0.9998684771545356  0.7504134230950683   T   T   T
  0.0000708041351842  0.7503301774048765  0.2497450571614337   T   T   T
  0.7503630901481841  0.7503170957554133  0.9998996218893410   T   T   T
  0.9376000288203912  0.8121246620508700  0.6871306623988573   T   T   T
  0.3116930564517375  0.8120368989424946  0.0614062323946740   T   T   T
  0.8121426589732721  0.0627003056105622  0.3130018012237983   T   T   T
  0.6869724463630362  0.0627036490398680  0.1878522985057600   T   T   T
  0.3128278665117605  0.0622901474305166  0.8121963841336353   T   T   T
  0.6876510228511634  0.8126201637232455  0.9375678295972563   T   T   T
  0.3121012687835432  0.9373609974377857  0.1869987449814587   T   T   T
  0.0624668292854551  0.3123039712035975  0.8126669254646686   T   T   T
  0.0625923309827598  0.1869681147166133  0.6879446084119536   T   T   T
  0.1879631010575054  0.6883069435482625  0.0614062323946740   T   T   T
  0.1873583735407891  0.9375614534449426  0.3124016011800848   T   T   T
  0.8128347151224418  0.6876356008573055  0.9374589601262286   T   T   T
  0.0624385465550574  0.8126416264592109  0.3124016011800848   T   T   T
  0.1873798362767545  0.3123489771488366  0.9375678295972563   T   T   T
  0.0626390025622143  0.6878987312164568  0.1869987449814587   T   T   T
  0.8121150127293291  0.3130299514912096  0.0626929687616098   T   T   T
  0.3123643991426945  0.1871652848775582  0.9374589601262286   T   T   T
  0.1878753379491300  0.0623999711796088  0.6871306623988573   T   T   T
  0.9372996943894378  0.1878573410267279  0.3130018012237983   T   T   T
  0.9377098525694834  0.6871721334882395  0.8121963841336353   T   T   T
  0.8130318852833867  0.9374076690172402  0.6879446084119536   T   T   T
  0.6869700485087904  0.1878849872706709  0.0626929687616098   T   T   T
  0.9372963509601320  0.3130275536369638  0.1878522985057600   T   T   T
  0.6876960287964025  0.9375331707145449  0.8126669254646686   T   T   T
  0.9999737414775680  0.3750115492954862  0.8750389214405203   T   T   T
  0.3748252401294465  0.9998190921442074  0.1247741909356890   T   T   T
  0.8751640822939279  0.6250550210078671  0.9999093295404862   T   T   T
  0.0001672752739026  0.1247096834701864  0.6252848131089337   T   T   T
  0.9999487398225284  0.8750424178160685  0.3750899451856640   T   T   T
  0.8748313843161526  0.3752648088880477  0.0001111972734833   T   T   T
  0.1252540866106457  0.9997553526152174  0.6249217305693051   T   T   T
  0.1249575821839315  0.0000512601774716  0.3750899451856640   T   T   T
  0.9998866030534685  0.3752872449351941  0.1251432533173542   T   T   T
  0.0002446473847826  0.8747459133893543  0.6249217305693051   T   T   T
  0.8752903165298136  0.9998327247260974  0.6252848131089337   T   T   T
  0.3746398230143626  0.8747025073249119  0.9995775386980696   T   T   T
  0.9998606812111603  0.1251876840727988  0.3753588237181305   T   T   T
  0.9996988190398142  0.6243443541631493  0.8749578495976422   T   T   T
  0.0001809078557926  0.6251747598705535  0.1247741909356890   T   T   T
  0.8748123159272012  0.0001393187888397  0.3753588237181305   T   T   T
  0.1252974926750881  0.6253601769856374  0.9995775386980696   T   T   T
  0.6247127550648059  0.0001133969465315  0.1251432533173542   T   T   T
  0.3749449789921329  0.1248359177060721  0.9999093295404862   T   T   T
  0.6247351911119523  0.1251686156838474  0.0001111972734833   T   T   T
  0.6249389950528226  0.8750334999803044  0.0000238355842725   T   T   T
  0.6249884507045138  0.0000262585224320  0.8750389214405203   T   T   T
  0.1249665000196956  0.3750610049471774  0.0000238355842725   T   T   T
  0.3756556458368507  0.0003011809601858  0.8749578495976422   T   T   T
  0.3123734404027587  0.1874797815987534  0.1874653789364800   T   T   T
  0.1875256285496434  0.3126464959751374  0.1875646795838222   T   T   T
  0.1874942250994565  0.1877236843712993  0.3127527384981690   T   T   T
  0.3131065716967214  0.8123863639592699  0.8120955932861094   T   T   T
  0.1876136360407301  0.6868934283032786  0.8120955932861094   T   T   T
  0.8122763156287007  0.8125057749005435  0.3127527384981690   T   T   T
  0.8125202184012466  0.6876265595972413  0.1874653789364800   T   T   T
  0.1881286607339376  0.8118713392660624  0.6869433022737752   T   T   T
  0.6873535040248626  0.8124743714503566  0.1875646795838222   T   T   T
  0.8124038553304658  0.3125847843167904  0.8124832868111866   T   T   T
  0.8125942073251977  0.1874057926748023  0.6876911351523134   T   T   T
  0.6874152156832096  0.1875961446695342  0.8124832868111866   T   T   T
  0.2499565540055571  0.2500503852167242  0.2500235042226251   T   T   T
  0.7502178866650837  0.7500093689895593  0.7500612736514967   T   T   T
  0.2499906310104407  0.2497821133349163  0.7500612736514967   T   T   T
  0.7497068860000198  0.2502931139999802  0.2502903321945809   T   T   T
  0.7500161096321776  0.2499838903678224  0.7500599495773486   T   T   T
  0.7499496147832758  0.7500434459944429  0.2500235042226251   T   T   T
  0.2498970762517772  0.7501029237482228  0.2496721918501095   T   T   T
  0.2503349189324879  0.7496650810675121  0.7498654178207218   T   T   T
  0.9376890343723829  0.9373604307067751  0.5626073081461627   T   T   T
  0.3118824627913455  0.6881175372086545  0.9376569555816090   T   T   T
  0.9374778331940377  0.6876890052836160  0.3123372348666749   T   T   T
  0.0625054221838823  0.9374945778161177  0.4375549088320128   T   T   T
  0.0624564264747534  0.3128601805494853  0.3128396619255156   T   T   T
  0.3122916934409901  0.3123327389739927  0.0625221617065463   T   T   T
  0.0626395692932249  0.0623109656276171  0.5626073081461627   T   T   T
  0.4377854190940056  0.0626587702204873  0.9373220577558001   T   T   T
  0.9374841946727486  0.4377214236103768  0.0625181576031650   T   T   T
  0.3133977979129483  0.9372862761790373  0.6866203915142464   T   T   T
  0.4372227498553798  0.9372557511465658  0.0621712051625494   T   T   T
  0.0627137238209627  0.6866022020870517  0.6866203915142464   T   T   T
  0.6871398194505147  0.9375435735252466  0.3128396619255156   T   T   T
  0.0627442488534342  0.5627772501446202  0.0621712051625494   T   T   T
  0.6876672610260073  0.6877083065590099  0.0625221617065463   T   T   T
  0.3123109947163840  0.0625221668059623  0.3123372348666749   T   T   T
  0.9374514539788592  0.0625485460211408  0.4377871408258471   T   T   T
  0.9374786908493959  0.3122151732957263  0.6877318059569859   T   T   T
  0.0625125075092825  0.4375432025207431  0.9374685940444110   T   T   T
  0.9373412297795127  0.5622145809059944  0.9373220577558001   T   T   T
  0.5622785763896232  0.0625158053272514  0.0625181576031650   T   T   T
  0.6871058969124846  0.3128941030875154  0.9375420691143717   T   T   T
  0.5624567974792569  0.9374874924907175  0.9374685940444110   T   T   T
  0.6877848267042737  0.0625213091506041  0.6877318059569859   T   T   T
  0.7502557228628106  0.8749499421497759  0.6252255520050483   T   T   T
  0.3761226742099524  0.8745536522251811  0.7489348775680185   T   T   T
  0.8749950026333835  0.6248558149190799  0.7499067984873378   T   T   T
  0.7501240044026787  0.6250833697416311  0.8749800442002567   T   T   T
  0.1254463477748189  0.6238773257900476  0.7489348775680185   T   T   T
  0.3748688852789783  0.1249344097105052  0.2499084006979686   T   T   T
  0.7498685819669291  0.8750436075475818  0.3752005440777637   T   T   T
  0.2499476661159008  0.3750493187649582  0.1249574481621849   T   T   T
  0.2499706959643930  0.1250254672572169  0.3750288527464676   T   T   T
  0.7500566079176707  0.6251234312689320  0.1249599037345135   T   T   T
  0.6251971242697252  0.8749812590894237  0.7500358728926884   T   T   T
  0.3749166302583689  0.2498759955973213  0.8749800442002567   T   T   T
  0.3751441850809201  0.1250049973666165  0.7499067984873378   T   T   T
  0.2504447719557987  0.8746965212929751  0.6245346771042435   T   T   T
  0.1249555974452079  0.3751537148749335  0.2500558077772226   T   T   T
  0.1253034787070249  0.7495552280442013  0.6245346771042435   T   T   T
  0.6251295772283854  0.7500183870585175  0.8749929317822449   T   T   T
  0.1249563924524182  0.2501314180330709  0.3752005440777637   T   T   T
  0.8748379961465318  0.2502054729556704  0.3753422090002587   T   T   T
  0.7497945270443296  0.1251620038534682  0.3753422090002587   T   T   T
  0.6248462851250665  0.8750444025547921  0.2500558077772226   T   T   T
  0.3748327359283579  0.8749863204636839  0.2497713412797182   T   T   T
  0.6249506812350418  0.7500523338840992  0.1249574481621849   T   T   T
  0.3751467274580520  0.7502540651735146  0.1250643749114744   T   T   T
  0.2499979690621927  0.8749881528934154  0.3748315492096950   T   T   T
  0.2499816129414754  0.3748704227716146  0.8749929317822449   T   T   T
  0.8749109125653973  0.7499383833199502  0.6247829831875436   T   T   T
  0.2500616166800498  0.1250890874346027  0.6247829831875436   T   T   T
  0.8748407627076489  0.3753441311314631  0.2502148296837206   T   T   T
  0.2497459348264854  0.6248532725419480  0.1250643749114744   T   T   T
  0.6246558688685369  0.1251592372923511  0.2502148296837206   T   T   T
  0.1250187409105763  0.3748028757302748  0.7500358728926884   T   T   T
  0.1250500578502241  0.2497442771371894  0.6252255520050483   T   T   T
  0.7497647207166125  0.3753613768094581  0.1251579117016561   T   T   T
  0.6246386231905419  0.2502352792833875  0.1251579117016561   T   T   T
  0.8749854304465927  0.3749244180470939  0.7500310820758074   T   T   T
  0.8750703331873098  0.2498575429214398  0.6251793582907794   T   T   T
  0.1250118471065846  0.7500020309378073  0.3748315492096950   T   T   T
  0.7498575478708887  0.3751010869669074  0.8750465756002512   T   T   T
  0.1250136795363161  0.6251672640716421  0.2497713412797182   T   T   T
  0.3749206667230922  0.7498937662448739  0.8748515422106848   T   T   T
  0.7501424570785602  0.1249296668126902  0.6251793582907794   T   T   T
  0.2501062337551261  0.6250793332769078  0.8748515422106848   T   T   T
  0.6248989130330926  0.2501424521291113  0.8750465756002512   T   T   T
  0.3748765687310680  0.2499433920823293  0.1249599037345135   T   T   T
  0.6250755819529061  0.1250145695534073  0.7500310820758074   T   T   T
  0.8749745327427831  0.7500293040356070  0.3750288527464676   T   T   T
  0.8750655902894948  0.6251311147210217  0.2499084006979686   T   T   T
  0.4373177687384171  0.8123783674569793  0.9373007010577226   T   T   T
  0.3125571454803762  0.1874449192639247  0.6874490730209857   T   T   T
  0.1877310604115223  0.9373037932546140  0.5623362562687220   T   T   T
  0.0626962067453860  0.8122689395884777  0.5623362562687220   T   T   T
  0.6876524343725592  0.6875415269019882  0.8125124137968385   T   T   T
  0.8125550807360753  0.6874428545196238  0.6874490730209857   T   T   T
  0.8123627754045231  0.3127123447616285  0.3127153125926867   T   T   T
  0.8125610309906222  0.5626673523359003  0.0624580440099862   T   T   T
  0.6872876552383715  0.1876372245954769  0.3127153125926867   T   T   T
  0.5622937858151360  0.9374850491995446  0.1874853153606040   T   T   T
  0.5624041843423839  0.8124899356837574  0.0624411345621709   T   T   T
  0.1876216325430207  0.5626822312615829  0.9373007010577226   T   T   T
  0.1875100643162426  0.4375958156576161  0.0624411345621709   T   T   T
  0.1875192757895121  0.3122922936538046  0.6875924534207627   T   T   T
  0.9374944990054459  0.8124778549914353  0.4375246429569515   T   T   T
  0.4372903973214761  0.0623967263187666  0.1873831550083693   T   T   T
  0.6872747673744399  0.3127252326255601  0.1876347068719113   T   T   T
  0.0624900087302152  0.1875551605482357  0.4377189207537668   T   T   T
  0.9374435732120361  0.4373937082892425  0.8124521091641199   T   T   T
  0.9376032736812334  0.5627096026785239  0.1873831550083693   T   T   T
  0.3124078992399006  0.8125021000760313  0.3122503923763773   T   T   T
  0.9375825626875169  0.1873530227119389  0.5627700122649131   T   T   T
  0.4378083872216862  0.9373890038040784  0.8122217514923236   T   T   T
  0.8123402959580019  0.4375628409159233  0.9374721809866884   T   T   T
  0.0625149508004554  0.4377062141848640  0.1874853153606040   T   T   T
  0.3124225686331741  0.6875774313668259  0.1872646509478386   T   T   T
  0.4373326476640997  0.1874389690093778  0.0624580440099862   T   T   T
  0.6877077063461954  0.8124807242104879  0.6875924534207627   T   T   T
  0.8126469772880611  0.0624174373124760  0.5627700122649131   T   T   T
  0.0626109961959216  0.5621916127783138  0.8122217514923236   T   T   T
  0.1874978999239687  0.6875921007600994  0.3122503923763773   T   T   T
  0.8124448394517643  0.9375099912697848  0.4377189207537668   T   T   T
  0.1875221450085647  0.0625055009945541  0.4375246429569515   T   T   T
  0.3124584730980118  0.3123475656274408  0.8125124137968385   T   T   T
  0.5624371590840767  0.1876597040419981  0.9374721809866884   T   T   T
  0.5626062917107575  0.0625564267879639  0.8124521091641199   T   T   T
  0.0000490358978666  0.9999509641021334  0.5001255880158411   T   T   T
  0.0000290259711662  0.5000826775432898  0.9999434448483839   T   T   T
  0.4999173224567102  0.9999709740288338  0.9999434448483839   T   T   T
  0.4375616579857180  0.1875088581410367  0.8124327203960320   T   T   T
  0.8124141519152204  0.4377803207717577  0.1875837037143953   T   T   T
  0.8124248622018868  0.1875751377981132  0.4377934807781898   T   T   T
  0.1875520472791834  0.8124479527208166  0.4373188809413833   T   T   T
  0.5622196792282423  0.1875858480847796  0.1875837037143953   T   T   T
  0.8124911418589633  0.5624383420142820  0.8124327203960320   T   T   T
  0.4375417764996357  0.8124310571897198  0.1875109296424995   T   T   T
  0.1875689428102802  0.5624582235003643  0.1875109296424995   T   T   T
  0.1875078325855384  0.4373588626522960  0.8124841664922755   T   T   T
  0.5626411373477040  0.8124921674144616  0.8124841664922755   T   T   T
  0.8125067098886021  0.8124321650183361  0.5624794605544423   T   T   T
  0.1875678349816639  0.1874932901113979  0.5624794605544423   T   T   T
  0.4997835954192809  0.1249879402845053  0.1250026216101006   T   T   T
  0.8750425154164816  0.8749694557178103  0.5000872576551529   T   T   T
  0.0000245804400478  0.3747522389503999  0.6251114186539937   T   T   T
  0.3754460461936731  0.9999145468789621  0.6245113166629324   T   T   T
  0.4998538635235690  0.8749829449344730  0.1249023602120332   T   T   T
  0.3749244653462966  0.9999745060264118  0.3748488795390443   T   T   T
  0.1250867986663735  0.4999516994228230  0.8749284812639715   T   T   T
  0.1251011184475033  0.8748988815524967  0.4998819236130529   T   T   T
  0.9999542643271013  0.3751848932063879  0.3751834879866536   T   T   T
  0.0000854531210379  0.6245539538063269  0.6245113166629324   T   T   T
  0.8750185984148473  0.1249814015851527  0.5002834232291633   T   T   T
  0.8748479286433124  0.4998375485108113  0.8749807916770322   T   T   T
  0.1250305442821897  0.1249574845835184  0.5000872576551529   T   T   T
  0.1250170550655270  0.5001461364764310  0.1249023602120332   T   T   T
  0.6248151067936121  0.0000457356728987  0.3751834879866536   T   T   T
  0.6247697443180869  0.3752302556819131  0.0000390716171026   T   T   T
  0.3752292988253387  0.6247707011746613  0.9996078812266944   T   T   T
  0.8750120597154947  0.5002164045807191  0.1250026216101006   T   T   T
  0.5000483005771770  0.8749132013336265  0.8749284812639715   T   T   T
  0.5001624514891887  0.1251520713566876  0.8749807916770322   T   T   T
  0.6252477610496001  0.9999754195599522  0.6251114186539937   T   T   T
  0.6250807513660206  0.6251452916850084  0.9999466347889765   T   T   T
  0.3748547083149916  0.3749192486339794  0.9999466347889765   T   T   T
  0.0000254939735882  0.6250755346537034  0.3748488795390443   T   T   T
  0.4373755633725978  0.3124494916973291  0.9374808881808931   T   T   T
  0.3124541698099819  0.5626080089916385  0.0623585264361424   T   T   T
  0.3124737527306962  0.3125196218843485  0.3124871155890787   T   T   T
  0.4373919910083615  0.6875458301900181  0.0623585264361424   T   T   T
  0.5622855067486014  0.0625191221189141  0.3125823131509762   T   T   T
  0.6875505083026709  0.5626244366274022  0.9374808881808931   T   T   T
  0.9374734824962729  0.3125738973546461  0.4377238412819935   T   T   T
  0.5625318562669435  0.6875536640188784  0.9374798200098198   T   T   T
  0.3124463359811216  0.4374681437330565  0.9374798200098198   T   T   T
  0.9375510058417191  0.5623216097544415  0.6873685871389910   T   T   T
  0.4376783902455585  0.0624489941582809  0.6873685871389910   T   T   T
  0.0625309108380065  0.6874646401334203  0.4373378410417885   T   T   T
  0.0625278736355739  0.5626459353040545  0.3123546659888135   T   T   T
  0.6873580676668283  0.4377288436231197  0.0625352958786607   T   T   T
  0.3126411998885175  0.0624799061605330  0.5623197291976822   T   T   T
  0.6874261026453539  0.0625265175037271  0.4377238412819935   T   T   T
  0.4373540646959455  0.9374721263644261  0.3123546659888135   T   T   T
  0.3125353598665797  0.9374690891619935  0.4373378410417885   T   T   T
  0.9374808778810859  0.4377144932513986  0.3125823131509762   T   T   T
  0.9375200938394670  0.6873588001114825  0.5623197291976822   T   T   T
  0.6876953045290080  0.9374844098079080  0.5626649170898474   T   T   T
  0.5622711563768803  0.3126419323331717  0.0625352958786607   T   T   T
  0.0625008957468651  0.4372306819452447  0.6874365416312926   T   T   T
  0.0625155901920920  0.3123046954709920  0.5626649170898474   T   T   T
  0.5627693180547553  0.9374991042531349  0.6874365416312926   T   T   T
  0.3126456027215809  0.6873543972784191  0.6873568490278075   T   T   T
  0.6874803781156515  0.6875262472693038  0.3124871155890787   T   T   T
  0.6875091085547567  0.3124908914452433  0.6875332384394710   T   T   T
  0.2499729812072715  0.5000769580188802  0.9998784209192308   T   T   T
  0.4999230419811198  0.7500270187927285  0.9998784209192308   T   T   T
  0.0000130795810307  0.5001757879524646  0.2499576441203715   T   T   T
  0.4998242120475354  0.9999869204189693  0.2499576441203715   T   T   T
  0.4998512112209426  0.2500370969041796  0.0000017271835944   T   T   T
  0.7499629030958204  0.5001487887790574  0.0000017271835944   T   T   T
  0.0000035439250325  0.2499423809180499  0.5002226714761306   T   T   T
  0.0000263770954518  0.4997713667485115  0.7499044409082813   T   T   T
  0.2500887477398877  0.9999410043996164  0.4998841748132961   T   T   T
  0.5002286332514885  0.9999736229045482  0.7499044409082813   T   T   T
  0.7500576190819501  0.9999964560749675  0.5002226714761306   T   T   T
  0.0000589956003836  0.7499112522601123  0.4998841748132961   T   T   T
  0.3124808397397203  0.4375313838785786  0.1874643597775361   T   T   T
  0.4373680323169964  0.3125261551062195  0.1874976392458763   T   T   T
  0.3125094777763735  0.1875168426271401  0.4374855751457787   T   T   T
  0.4375293088391885  0.6874864460852876  0.8125218965503578   T   T   T
  0.3125135539147124  0.5624706911608115  0.8125218965503578   T   T   T
  0.8124831573728599  0.6874905222236265  0.4374855751457787   T   T   T
  0.8125004895816517  0.5626224196259670  0.3124832392330603   T   T   T
  0.4382032769067123  0.8124108190074111  0.6868911331555552   T   T   T
  0.1875390159425621  0.4375105300289945  0.3125169215452033   T   T   T
  0.1875891809925889  0.5617967230932877  0.6868911331555552   T   T   T
  0.6875019751870539  0.8124789117248028  0.4375435005773838   T   T   T
  0.1875210882751972  0.3124980248129461  0.4375435005773838   T   T   T
  0.6874738448937805  0.5626319676830036  0.1874976392458763   T   T   T
  0.3127766705179909  0.8123231423994994  0.5621633846068192   T   T   T
  0.1876768576005006  0.6872233294820163  0.5621633846068192   T   T   T
  0.5624894699710055  0.8124609840574379  0.3125169215452033   T   T   T
  0.5624686161214214  0.6875191602602797  0.1874643597775361   T   T   T
  0.8124951296750069  0.4374548630202497  0.6874915559702117   T   T   T
  0.8125091985488027  0.3124623152744945  0.5626381088065173   T   T   T
  0.6874558657807768  0.4375486397647563  0.8124720293118415   T   T   T
  0.4373775803740330  0.1874995104183483  0.3124832392330603   T   T   T
  0.6875376847255055  0.1874908014511973  0.5626381088065173   T   T   T
  0.5624513602352437  0.3125441342192232  0.8124720293118415   T   T   T
  0.5625451369797503  0.1875048703249931  0.6874915559702117   T   T   T
  0.3749308118129804  0.6250691881870196  0.2498827087281867   T   T   T
  0.6249740421492120  0.6250653132187409  0.2499726670061904   T   T   T
  0.2500227858138189  0.6249965644276116  0.3748019247415186   T   T   T
  0.3750969933597332  0.6249030066402668  0.7499408415454738   T   T   T
  0.6251652986687901  0.7499676958361050  0.6249862591584758   T   T   T
  0.3749346867812591  0.3750259578507880  0.2499726670061904   T   T   T
  0.7499924872661836  0.6250502456707707  0.3749783122756440   T   T   T
  0.6251119519697070  0.6249819991472521  0.7499772936905558   T   T   T
  0.3750180008527479  0.3748880480302930  0.7499772936905558   T   T   T
  0.3750278984783151  0.2499758013615718  0.6249776632927251   T   T   T
  0.7499101906021721  0.3751229737621529  0.3751279111194066   T   T   T
  0.6248770262378471  0.2500898093978279  0.3751279111194066   T   T   T
  0.2500323041638950  0.3748347013312099  0.6249862591584758   T   T   T
  0.6248502406610399  0.3751497593389601  0.2500793091561704   T   T   T
  0.7500026593257587  0.3749755797842695  0.6250453640791420   T   T   T
  0.7500241986384282  0.6249721015216849  0.6249776632927251   T   T   T
  0.3752732751278600  0.7498290940521457  0.6247467211671562   T   T   T
  0.6249874216804940  0.3750125783195060  0.7500014062381481   T   T   T
  0.2499874098021735  0.3749784544908934  0.3749969010628789   T   T   T
  0.6250244202157305  0.2499973406742413  0.6250453640791420   T   T   T
  0.2501709059478543  0.6247267248721400  0.6247467211671562   T   T   T
  0.3749497543292293  0.2500075127338164  0.3749783122756440   T   T   T
  0.3750034355723884  0.7499772141861811  0.3748019247415186   T   T   T
  0.6250215455091066  0.7500125901978265  0.3749969010628789   T   T   T
  0.7499435380819008  0.5001760448214441  0.2500365325397667   T   T   T
  0.7499922352948545  0.7499937561741419  0.4999848486003131   T   T   T
  0.5000243279027572  0.2500182048640553  0.7499745243189437   T   T   T
  0.2501532170122545  0.7498467829877455  0.4997335170247368   T   T   T
  0.7499817951359447  0.4999756720972357  0.7499745243189437   T   T   T