HSE_C                                   
   1.00000000000000     
    14.1786088942999999    0.0000000000000000    0.0000000000000000
     0.0000000000000000   14.1786088942999999    0.0000000000000000
     0.0000000000000000    0.0000000000000000   14.1786088942999999
   O    C 
     1   510
Selective dynamics
Direct
  0.9875195959351766  0.0124804040648232  0.0017178368696162   T   T   T
  0.0687006453149338  0.0711602960945865  0.0686088061543992   T   T   T
  0.0789283249358854  0.9210716750641148  0.9289916431894543   T   T   T
  0.9288397039054136  0.9312993546850664  0.0686088061543992   T   T   T
  0.9332039626677237  0.0667960373322768  0.9366042509619824   T   T   T
  0.1259506244466123  0.1260290487927977  0.0002697526171076   T   T   T
  0.1273255657620809  0.9977310097234160  0.8750392430414363   T   T   T
  0.0004106529038048  0.1268639167570457  0.1262044934347141   T   T   T
  0.0022689902765840  0.8726744342379190  0.8750392430414363   T   T   T
  0.1248721031875810  0.0015114734575619  0.1255323731811713   T   T   T
  0.8731360832429542 -0.0004106529038047  0.1262044934347141   T   T   T
  0.8739709512072024  0.8740493755533877  0.0002697526171076   T   T   T
  0.1172471595681070  0.8827528404318931  0.0057590619204758   T   T   T
 -0.0000058128221959  0.1249797446119675  0.8755498069920131   T   T   T
  0.8728321192345005  0.1271678807654997  0.0001042316527798   T   T   T
  0.8750202553880325  0.0000058128221959  0.8755498069920131   T   T   T
  0.9984885265424378  0.8751278968124191  0.1255323731811713   T   T   T
  0.1868388816642750  0.9382174175650608  0.0623304864808222   T   T   T
  0.9382319251687670  0.8121966978122465  0.9377192361270508   T   T   T
  0.0618331809084751  0.9381668190915248  0.1873358152128927   T   T   T
  0.0625889426387288  0.1877918591097453  0.9377875015732776   T   T   T
  0.0627019402082048  0.0609614292221346  0.8137612911363690   T   T   T
  0.1878033021877533  0.0617680748312331  0.9377192361270508   T   T   T
  0.9372705627964483  0.1882499643953112  0.0626842914029762   T   T   T
  0.9374445370465365  0.0625554629534634  0.1874476703771958   T   T   T
  0.0617825824349395  0.8131611183357250  0.0623304864808222   T   T   T
  0.9390385707778656  0.9372980597917950  0.8137612911363690   T   T   T
  0.8117500356046887  0.0627294372035518  0.0626842914029762   T   T   T
  0.8122081408902544  0.9374110573612711  0.9377875015732776   T   T   T
  0.9997341040369242  0.0002658959630757  0.2501621775837792   T   T   T
  0.0004691100884240  0.9995308899115757  0.7505364320213157   T   T   T
  0.0004218104278958  0.7502206466744981 -0.0000949200158251   T   T   T
  0.7495928925974320  0.0000117073207357  0.0001108417088139   T   T   T
  0.9999882926792640  0.2504071074025681  0.0001108417088139   T   T   T
  0.2497793533255019  0.9995781895721042 -0.0000949200158251   T   T   T
  0.0624507774541197  0.1890092253842168  0.1887858521152229   T   T   T
  0.1886333002412254  0.1886992204893091  0.0625342036563423   T   T   T
  0.1878374367904349  0.0632586974205272  0.1883583565050100   T   T   T
  0.9367413025794727  0.8121625632095654  0.1883583565050100   T   T   T
  0.1896233382220231  0.9367128357070532  0.8105811150475112   T   T   T
  0.0632871642929468  0.8103766617779768  0.8105811150475112   T   T   T
  0.8109907746157828  0.9375492225458806  0.1887858521152229   T   T   T
  0.8113007795106908  0.8113666997587744  0.0625342036563423   T   T   T
  0.9375140135008528  0.1876218429068898  0.8125950633006674   T   T   T
  0.8112243230297114  0.1887756769702957  0.9376720759206297   T   T   T
  0.8123781570931101  0.0624859864991471  0.8125950633006674   T   T   T
  0.2557138154093290  0.8786191195978627  0.8681825327713085   T   T   T
  0.1213808804021373  0.7442861845906709  0.8681825327713085   T   T   T
  0.8756162888786828  0.8749103750843941  0.7506410374992630   T   T   T
  0.8743827169676869  0.8749929436459744  0.2506148937630546   T   T   T
  0.8746974675062147  0.7496671103095730  0.1250760218864612   T   T   T
  0.1252167255482909  0.2506651264739398  0.1252268908708984   T   T   T
  0.2500791181829684  0.1247427828588583  0.8750865238627357   T   T   T
  0.1257103457904108  0.8742896542095890  0.7490027957112761   T   T   T
  0.8752572171411416  0.7499208818170316  0.8750865238627357   T   T   T
  0.1250070563540257  0.1256172830323131  0.2506148937630546   T   T   T
  0.8748934049172857  0.1251065950827144  0.2500424648644489   T   T   T
  0.7493348735260601  0.8747832744517092  0.1252268908708984   T   T   T
  0.7499815202976241  0.8749220328017049  0.8750826010754464   T   T   T
  0.2503328896904269  0.1253025324937851  0.1250760218864612   T   T   T
  0.1250779671982951  0.2500184797023758  0.8750826010754464   T   T   T
  0.1250896249156060  0.1243837111213172  0.7506410374992630   T   T   T
  0.8748381782817340  0.2504289460693800  0.1252299597574265   T   T   T
  0.7495710539306202  0.1251618217182656  0.1252299597574265   T   T   T
  0.8748002876773560  0.2503328976621007  0.8751140537863957   T   T   T
  0.8750969409737130  0.1249030590262871  0.7501611350567636   T   T   T
  0.2494062815813184  0.8751828413542138  0.1245694696778393   T   T   T
  0.7496671023378991  0.1251997123226440  0.8751140537863957   T   T   T
  0.1246950878049516  0.8753049121950485  0.2496778888139681   T   T   T
  0.1248171586457863  0.7505937184186816  0.1245694696778393   T   T   T
  0.3118227458361925  0.9363784469573476  0.9372139861619454   T   T   T
  0.1875601296872455  0.1872550332955825  0.8126993611145108   T   T   T
  0.0628289777118557  0.9371710222881443  0.6874117789276553   T   T   T
  0.0625670953057583  0.3128616743735423  0.0625988111461420   T   T   T
  0.3125149178963398  0.0623147137868934  0.0623704313414320   T   T   T
  0.8123464529882780  0.1876535470117218  0.1876124695578364   T   T   T
  0.6871383256264573  0.9374329046942412  0.0625988111461420   T   T   T
  0.0636215530426527  0.6881772541638078  0.9372139861619454   T   T   T
  0.9374673968130326  0.3127498982532326  0.9375533662705373   T   T   T
  0.0623807980665480  0.0627358268357948  0.3126924227093183   T   T   T
  0.9372641731642051  0.9376192019334519  0.3126924227093183   T   T   T
  0.9377483930973679  0.0622516069026323  0.6878979732622893   T   T   T
  0.1872448424447442  0.8127551575552556  0.1871537413639495   T   T   T
  0.8127449667044173  0.8124398703127547  0.8126993611145108   T   T   T
  0.9376852862131064  0.6874850821036601  0.0623704313414320   T   T   T
  0.6872501017467675  0.0625326031869672  0.9375533662705373   T   T   T
  0.0000566988385518  0.2499648126594256  0.7501106243739551   T   T   T
  0.2549830056424296  0.7450169943575701  0.0045695198516229   T   T   T
  0.9999375337746406  0.2508475195488424  0.2507284015344879   T   T   T
 -0.0003092684779163  0.7490187914482037  0.7484521669155704   T   T   T
  0.2506255346732459  0.2506156240006630  0.0000055001334402   T   T   T
  0.2501268748087285  0.0001755549030066  0.2502135697704556   T   T   T
  0.7492652815017510  0.2507347184982491  0.0001149140367260   T   T   T
  0.7491524804511503  0.0000624662253596  0.2507284015344879   T   T   T
  0.2509812085517963  0.0003092684779163  0.7484521669155704   T   T   T
  0.7500351873405744 -0.0000566988385519  0.7501106243739551   T   T   T
 -0.0001755549030065  0.7498731251912714  0.2502135697704556   T   T   T
  0.7493843759993369  0.7493744653267541  0.0000055001334402   T   T   T
  0.9374803172532841  0.8123409241390031  0.6871917644187333   T   T   T
  0.3119518423618737  0.8125563591475177  0.0620346707006071   T   T   T
  0.8122958293456967  0.0625784257993630  0.3127056455862910   T   T   T
  0.6870954315771454  0.0625873116780240  0.1877552740339074   T   T   T
  0.3127405861370390  0.0624340957469883  0.8122261985158902   T   T   T
  0.6873321667655382  0.8123387055863713  0.9375163406231742   T   T   T
  0.3122582163575695  0.9375052631079890  0.1872986344823770   T   T   T
  0.0625675232357908  0.3125000180617775  0.8125498464311574   T   T   T
  0.0625442972157211  0.1871331763883539  0.6878992534402226   T   T   T
  0.1874436408524826  0.6880481576381262  0.0620346707006071   T   T   T
  0.1873681057167764  0.9376458376387018  0.3123889539640966   T   T   T
  0.8125084659180772  0.6873497994873587  0.9374931672397785   T   T   T
  0.0623541623612979  0.8126318942832236  0.3123889539640966   T   T   T
  0.1876612944136284  0.3126678332344614  0.9375163406231742   T   T   T
  0.0624947368920110  0.6877417836424304  0.1872986344823770   T   T   T
  0.8122857395948044  0.3128550760572822  0.0626256047047699   T   T   T
  0.3126502005126410  0.1874915340819227  0.9374931672397785   T   T   T
  0.1876590758609974  0.0625196827467158  0.6871917644187333   T   T   T
  0.9374215742006371  0.1877041706543035  0.3127056455862910   T   T   T
  0.9375659042530118  0.6872594138629611  0.8122261985158902   T   T   T
  0.8128668236116459  0.9374557027842790  0.6878992534402226   T   T   T
  0.6871449239427178  0.1877142604051956  0.0626256047047699   T   T   T
  0.9374126883219759  0.3129045684228546  0.1877552740339074   T   T   T
  0.6874999819382227  0.9374324767642090  0.8125498464311574   T   T   T
  0.0000381113700591  0.3750828743482461  0.8750007901060824   T   T   T
  0.3748917376998152  0.9999264835318571  0.1249071546169388   T   T   T
  0.8750577353421040  0.6249761016899766  0.9999826780785592   T   T   T
  0.0000962138010916  0.1248021564158787  0.6252668315937372   T   T   T
  0.9998971639276373  0.8750742794302210  0.3750041311075436   T   T   T
  0.8749465705582242  0.3752120084689494  0.0000710263435819   T   T   T
  0.1251147048780711  0.9998990674158975  0.6248745958441093   T   T   T
  0.1249257205697791  0.0001028360723629  0.3750041311075436   T   T   T
  0.9999839121992921  0.3752649257854215  0.1250969811665205   T   T   T
  0.0001009325841023  0.8748852951219288  0.6248745958441093   T   T   T
  0.8751978435841213  0.9999037861989089  0.6252668315937372   T   T   T
  0.3746989626350519  0.8746330609993361  0.9996624956707337   T   T   T
  0.9999064416895137  0.1251318400679705  0.3751782462880592   T   T   T
 -0.0001102450964954  0.6246446558258992  0.8747234670835894   T   T   T
  0.0000735164681429  0.6251082623001848  0.1249071546169388   T   T   T
  0.8748681599320296  0.0000935583104861  0.3751782462880592   T   T   T
  0.1253669390006636  0.6253010373649481  0.9996624956707337   T   T   T
  0.6247350742145782  0.0000160878007079  0.1250969811665205   T   T   T
  0.3750238983100238  0.1249422646578956  0.9999826780785592   T   T   T
  0.6247879915310505  0.1250534294417761  0.0000710263435819   T   T   T
  0.6248139988541136  0.8749116610476061  0.0000038039815132   T   T   T
  0.6249171256517541 -0.0000381113700590  0.8750007901060824   T   T   T
  0.1250883389523939  0.3751860011458863  0.0000038039815132   T   T   T
  0.3753553441741010  0.0001102450964954  0.8747234670835894   T   T   T
  0.3126907991767384  0.1876662117364145  0.1875833716202150   T   T   T
  0.1876544214944962  0.3128812297676751  0.1876335065304411   T   T   T
  0.1875680110019615  0.1878100611220186  0.3128339231044305   T   T   T
  0.3129594718694350  0.8119719386853771  0.8118221159376352   T   T   T
  0.1880280613146228  0.6870405281305647  0.8118221159376352   T   T   T
  0.8121899388779815  0.8124319889980387  0.3128339231044305   T   T   T
  0.8123337882635854  0.6873092008232616  0.1875833716202150   T   T   T
  0.1879285131725362  0.8120714868274637  0.6868159935027498   T   T   T
  0.6871187702323247  0.8123455785055035  0.1876335065304411   T   T   T
  0.8124463275084830  0.3126267437154509  0.8124763225321868   T   T   T
  0.8125493663791256  0.1874506336208743  0.6876191385766984   T   T   T
  0.6873732562845489  0.1875536724915166  0.8124763225321868   T   T   T
  0.2500596626965736  0.2501585393005204  0.2500820710075295   T   T   T
  0.7501473343386015  0.7499768852834985  0.7500549002588337   T   T   T
  0.2500231147165014  0.2498526656613987  0.7500549002588337   T   T   T
  0.7499057101953169  0.2500942898046832  0.2501108388826189   T   T   T
  0.7500042250854813  0.2499957749145189  0.7500481231264019   T   T   T
  0.7498414606994792  0.7499403373034264  0.2500820710075295   T   T   T
  0.2498433974380617  0.7501566025619379  0.2498293406582595   T   T   T
  0.2503281229112168  0.7496718770887836  0.7493483440933741   T   T   T
  0.9375736721053075  0.9374621804868691  0.5625486204528518   T   T   T
  0.3123026025593529  0.6876973974406467  0.9373694821116392   T   T   T
  0.9374157455525709  0.6873907733810554  0.3126387743144905   T   T   T
  0.0624636381599195  0.9375363618400805  0.4374788870712410   T   T   T
  0.0624896266478397  0.3129715564267554  0.3129204220393056   T   T   T
  0.3128590528870118  0.3128820147488527  0.0625071929147683   T   T   T
  0.0625378195131307  0.0624263278946926  0.5625486204528518   T   T   T
  0.4375764124968423  0.0624973232727422  0.9374580159996858   T   T   T
  0.9375173847763864  0.4376890281769275  0.0625373981641486   T   T   T
  0.3131846380724059  0.9373852456499676  0.6866305382964859   T   T   T
  0.4372324747378034  0.9373360601273354  0.0623008557633623   T   T   T
  0.0626147543500322  0.6868153619275941  0.6866305382964859   T   T   T
  0.6870284435732442  0.9375103733521600  0.3129204220393056   T   T   T
  0.0626639398726647  0.5627675252621965  0.0623008557633623   T   T   T
  0.6871179852511474  0.6871409471129881  0.0625071929147683   T   T   T
  0.3126092266189448  0.0625842544474292  0.3126387743144905   T   T   T
  0.9374438412092052  0.0625561587907950  0.4376438512694655   T   T   T
  0.9375240831260314  0.3124357064502765  0.6875551454332842   T   T   T
  0.0625756473440937  0.4376125982909382  0.9374614450781311   T   T   T
  0.9375026767272577  0.5624235875031581  0.9374580159996858   T   T   T
  0.5623109718230729  0.0624826152236139  0.0625373981641486   T   T   T
  0.6871272134511885  0.3128727865488112  0.9375491037697528   T   T   T
  0.5623874017090618  0.9374243526559060  0.9374614450781311   T   T   T
  0.6875642935497309  0.0624759168739685  0.6875551454332842   T   T   T
  0.7502067353299143  0.8749577347799891  0.6252022938627922   T   T   T
  0.3760211520886016  0.8748078778626930  0.7488310525392838   T   T   T
  0.8749631072821034  0.6248279040197358  0.7498753415284282   T   T   T
  0.7500329061989638  0.6249212172930689  0.8749530997240600   T   T   T
  0.1251921221373070  0.6239788479113981  0.7488310525392838   T   T   T
  0.3750571327213554  0.1250556925660252  0.2500583939976799   T   T   T
  0.7497872222330353  0.8749883677155361  0.3752421758170327   T   T   T
  0.2501494617325489  0.3752492572634822  0.1250252001693903   T   T   T
  0.2500528475852561  0.1251064586467972  0.3751231448009478   T   T   T
  0.7498522722403406  0.6248686155578549  0.1250343861463431   T   T   T
  0.6250724385144356  0.8749425143792546  0.7499811106726649   T   T   T
  0.3750787827069309  0.2499670938010362  0.8749530997240600   T   T   T
  0.3751720959802642  0.1250368927178965  0.7498753415284282   T   T   T
  0.2503185055323843  0.8748177425446100  0.6244624847887933   T   T   T
  0.1250371433786641  0.3752670039356880  0.2501321246128235   T   T   T
  0.1251822574553899  0.7496814944676156  0.6244624847887933   T   T   T
  0.6249594238620986  0.7499133105033329  0.8749386059515716   T   T   T
  0.1250116322844639  0.2502127777669649  0.3752421758170327   T   T   T
  0.8749223248105058  0.2500659756230846  0.3751646698799822   T   T   T
  0.7499340243769157  0.1250776751894944  0.3751646698799822   T   T   T
  0.6247329960643120  0.8749628566213357  0.2501321246128235   T   T   T
  0.3748818150204895  0.8750439345095591  0.2499191770820269   T   T   T
  0.6247507427365181  0.7498505382674509  0.1250252001693903   T   T   T
  0.3753364286680689  0.7500210699442884  0.1254077049652892   T   T   T
  0.2499290507281950  0.8750477198227522  0.3748476678242477   T   T   T
  0.2500866894966667  0.3750405761379014  0.8749386059515716   T   T   T
  0.8748928041489489  0.7499501670399281  0.6248248747214575   T   T   T
  0.2500498329600721  0.1251071958510513  0.6248248747214575   T   T   T
  0.8749070644384611  0.3752158365389237  0.2501423936497060   T   T   T
  0.2499789300557115  0.6246635713319314  0.1254077049652892   T   T   T
  0.6247841634610762  0.1250929355615318  0.2501423936497060   T   T   T
  0.1250574856207454  0.3749275614855646  0.7499811106726649   T   T   T
  0.1250422652200114  0.2497932646700855  0.6252022938627922   T   T   T
  0.7498839203813986  0.3751993129714681  0.1251134688353193   T   T   T
  0.6248006870285320  0.2501160796186012  0.1251134688353193   T   T   T
  0.8750027706519206  0.3750015828595334  0.7499856193923791   T   T   T
  0.8750363743033284  0.2499351906132154  0.6251079202035419   T   T   T
  0.1249522801772479  0.7500709492718048  0.3748476678242477   T   T   T
  0.7499067513242699  0.3751140460421944  0.8750151311898554   T   T   T
  0.1249560654904412  0.6251181849795107  0.2499191770820269   T   T   T
  0.3750720462865687  0.7499021213376528  0.8748660332486445   T   T   T
  0.7500648093867847  0.1249636256966716  0.6251079202035419   T   T   T
  0.2500978786623478  0.6249279537134309  0.8748660332486445   T   T   T
  0.6248859539578054  0.2500932486757304  0.8750151311898554   T   T   T
  0.3751313844421449  0.2501477277596595  0.1250343861463431   T   T   T
  0.6249984171404668  0.1249972293480795  0.7499856193923791   T   T   T
  0.8748935413532024  0.7499471524147439  0.3751231448009478   T   T   T
  0.8749443074339747  0.6249428672786447  0.2500583939976799   T   T   T
  0.4373655902052010  0.8123502329467495  0.9373367398417168   T   T   T
  0.3125502326487911  0.1874846287832541  0.6874535341063126   T   T   T
  0.1876126008501629  0.9374208291828225  0.5622966528018425   T   T   T
  0.0625791708171774  0.8123873991498367  0.5622966528018425   T   T   T
  0.6875765054976899  0.6874612784047101  0.8124800488508735   T   T   T
  0.8125153712167460  0.6874497673512089  0.6874535341063126   T   T   T
  0.8124378981334576  0.3125738676015818  0.3126030428528753   T   T   T
  0.8124821147172524  0.5625188461216116  0.0625183553899904   T   T   T
  0.6874261323984180  0.1875621018665425  0.3126030428528753   T   T   T
  0.5622920781799491  0.9374835828900602  0.1875259138329878   T   T   T
  0.5623271532885264  0.8124110285776019  0.0624776979902330   T   T   T
  0.1876497670532503  0.5626344097947994  0.9373367398417168   T   T   T
  0.1875889714223981  0.4376728467114737  0.0624776979902330   T   T   T
  0.1875478830739804  0.3123613206029874  0.6875616547267349   T   T   T
  0.9374515502838492  0.8125009452134568  0.4375023913271649   T   T   T
  0.4374097789827479  0.0624782257063548  0.1874900703266902   T   T   T
  0.6874146840948865  0.3125853159051137  0.1875863712685323   T   T   T
  0.0624822098847516  0.1875669984718622  0.4376390915749948   T   T   T
  0.9375117372498591  0.4374715428126554  0.8124523606544668   T   T   T
  0.9375217742936451  0.5625902210172519  0.1874900703266902   T   T   T
  0.3124050458962452  0.8125417757892025  0.3123582924145485   T   T   T
  0.9375427739762350  0.1874087539417319  0.5627094863548429   T   T   T
  0.4377020272447291  0.9373488994763659  0.8122244180893181   T   T   T
  0.8124463371979467  0.4375718588510639  0.9375074069645790   T   T   T
  0.0625164171099396  0.4377079218200509  0.1875259138329878   T   T   T
  0.3124432606077314  0.6875567393922688  0.1875296636327291   T   T   T
  0.4374811538783885  0.1875178852827478  0.0625183553899904   T   T   T
  0.6876386793970126  0.8124521169260198  0.6875616547267349   T   T   T
  0.8125912460582679  0.0624572260237651  0.5627094863548429   T   T   T
  0.0626511005236340  0.5622979727552708  0.8122244180893181   T   T   T
  0.1874582242107975  0.6875949541037550  0.3123582924145485   T   T   T
  0.8124330015281379  0.9375177901152482  0.4376390915749948   T   T   T
  0.1874990547865436  0.0625484497161508  0.4375023913271649   T   T   T
  0.3125387215952899  0.3124234945023101  0.8124800488508735   T   T   T
  0.5624281411489360  0.1875536628020532  0.9375074069645790   T   T   T
  0.5625284571873449  0.0624882627501406  0.8124523606544668   T   T   T
 -0.0000049080559786  0.0000049080559786  0.5000458119678451   T   T   T
  0.0000845518052671  0.5001206955186160  0.9999612872803310   T   T   T
  0.4998793044813841  0.9999154481947329  0.9999612872803310   T   T   T
  0.4375948300954753  0.1875145252454147  0.8124253850226743   T   T   T
  0.8124267151882555  0.4376482264352090  0.1875981243084488   T   T   T
  0.8124663071332042  0.1875336928667959  0.4376692220950422   T   T   T
  0.1875070324177852  0.8124929675822147  0.4373303853812767   T   T   T
  0.5623517735647909  0.1875732848117447  0.1875981243084488   T   T   T
  0.8124854747545786  0.5624051699045244  0.8124253850226743   T   T   T
  0.4375703126626506  0.8125138383584136  0.1876536124874432   T   T   T
  0.1874861616415863  0.5624296873373494  0.1876536124874432   T   T   T
  0.1875949980556444  0.4374716502831993  0.8124114207951044   T   T   T
  0.5625283497168008  0.8124050019443555  0.8124114207951044   T   T   T
  0.8124777843025623  0.8124648046448842  0.5624843451703858   T   T   T
  0.1875351953551161  0.1875222156974376  0.5624843451703858   T   T   T
  0.4998907348181517  0.1250138401346004  0.1250417293478021   T   T   T
  0.8749929640755029  0.8749994529735732  0.5000499191225767   T   T   T
  0.0000137028894415  0.3748886451051031  0.6250154014448936   T   T   T
  0.3753809817257037  0.9999815460805133  0.6245150703007948   T   T   T
  0.4998411164561276  0.8749522108428747  0.1249493888016509   T   T   T
  0.3750566064581210  0.0000491732846597  0.3750298612529490   T   T   T
  0.1251175315752609  0.4999991360601290  0.8749048448151187   T   T   T
  0.1250265872461861  0.8749734127538140  0.4998466881922115   T   T   T
  0.9999892928881022  0.3752134346884443  0.3752368121030354   T   T   T
  0.0000184539194867  0.6246190182742967  0.6245150703007948   T   T   T
  0.8750135413362817  0.1249864586637180  0.5001943061976569   T   T   T
  0.8749748728735890  0.4999474462524357  0.8749426453963817   T   T   T
  0.1250005470264269  0.1250070359244970  0.5000499191225767   T   T   T
  0.1250477891571256  0.5001588835438725  0.1249493888016509   T   T   T
  0.6247865653115560  0.0000107071118977  0.3752368121030354   T   T   T
  0.6248121489887452  0.3751878510112549  0.0000232035233708   T   T   T
  0.3755275526193773  0.6244724473806224 -0.0000960012178745   T   T   T
  0.8749861598653994  0.5001092651818482  0.1250417293478021   T   T   T
  0.5000008639398713  0.8748824684247393  0.8749048448151187   T   T   T
  0.5000525537475643  0.1250251271264111  0.8749426453963817   T   T   T
  0.6251113548948967 -0.0000137028894415  0.6250154014448936   T   T   T
  0.6248136002648462  0.6248134761735670 -0.0000122292147236   T   T   T
  0.3751865238264400  0.3751863997351537 -0.0000122292147236   T   T   T
 -0.0000491732846597  0.6249433935418786  0.3750298612529490   T   T   T
  0.4375335621994677  0.3125311149299085  0.9374779502738120   T   T   T
  0.3125351860198854  0.5624915597496066  0.0624716093627468   T   T   T
  0.3125429082094235  0.3125691172441820  0.3125449941094701   T   T   T
  0.4375084402503864  0.6874648139801147  0.0624716093627468   T   T   T
  0.5623696019968679  0.0625315005324249  0.3126060870071029   T   T   T
  0.6874688850700915  0.5624664378005323  0.9374779502738120   T   T   T
  0.9374879059115986  0.3125275135869107  0.4376454702464805   T   T   T
  0.5624446757591940  0.6874095797267985  0.9374443683588759   T   T   T
  0.3125904202732016  0.4375553242408057  0.9374443683588759   T   T   T
  0.9375423219971555  0.5623599966427162  0.6873593996454092   T   T   T
  0.4376400033572841  0.0624576780028447  0.6873593996454092   T   T   T
  0.0624893616260016  0.6874835921514576  0.4373704452923992   T   T   T
  0.0624768264097958  0.5625811567701756  0.3124790506606414   T   T   T
  0.6874109811269083  0.4376014828063606  0.0625438975403460   T   T   T
  0.3125899140956177  0.0625190014268544  0.5623381625756255   T   T   T
  0.6874724864130893  0.0625120940884014  0.4376454702464805   T   T   T
  0.4374188432298242  0.9375231735902042  0.3124790506606414   T   T   T
  0.3125164078485423  0.9375106383739985  0.4373704452923992   T   T   T
  0.9374684994675750  0.4376303980031394  0.3126060870071029   T   T   T
  0.9374809985731456  0.6874100859043824  0.5623381625756255   T   T   T
  0.6876395853859771  0.9374850515027214  0.5626364364265083   T   T   T
  0.5623985171936393  0.3125890188730915  0.0625438975403460   T   T   T
  0.0625519361866518  0.4373404131345360  0.6873951486399781   T   T   T
  0.0625149484972786  0.3123604146140229  0.5626364364265083   T   T   T
  0.5626595868654641  0.9374480638133482  0.6873951486399781   T   T   T
  0.3127074182921205  0.6872925817078799  0.6871224929177449   T   T   T
  0.6874308827558184  0.6874570917905763  0.3125449941094701   T   T   T
  0.6875225016795844  0.3124774983204152  0.6875190121308583   T   T   T
  0.2500687416466798  0.5000725435791479  0.9999156648750176   T   T   T
  0.4999274564208518  0.7499312583533202  0.9999156648750176   T   T   T
  0.9999862473664429  0.5001175548375009  0.2500237370301208   T   T   T
  0.4998824451624994  0.0000137526335573  0.2500237370301208   T   T   T
  0.4999553329913594  0.2500355504759065  0.0000142876697784   T   T   T
  0.7499644495240936  0.5000446670086407  0.0000142876697784   T   T   T
  0.9999994105569263  0.2499553038483430  0.5001637925839663   T   T   T
  0.0000252601899985  0.4998330429066494  0.7498605147905768   T   T   T
  0.2500446880594678  0.0000023736442081  0.4998769444449175   T   T   T
  0.5001669570933504 -0.0000252601899984  0.7498605147905768   T   T   T
  0.7500446961516570  0.0000005894430736  0.5001637925839663   T   T   T
 -0.0000023736442083  0.7499553119405324  0.4998769444449175   T   T   T
  0.3125646105774391  0.4376031200004911  0.1875524564569400   T   T   T
  0.4375419954879045  0.3125816026543396  0.1875576083622412   T   T   T
  0.3125469090587326  0.1875533754567388  0.4375521518136786   T   T   T
  0.4375458519124939  0.6874028372612963  0.8124079614095026   T   T   T
  0.3125971627387035  0.5624541480875062  0.8124079614095026   T   T   T
  0.8124466245432614  0.6874530909412674  0.4375521518136786   T   T   T
  0.8124507955141443  0.5624859783753163  0.3125603227797180   T   T   T
  0.4380455449882393  0.8123152029920511  0.6868983321432207   T   T   T
  0.1875454185877111  0.4375735208485152  0.3125875635078528   T   T   T
  0.1876847970079488  0.5619544550117676  0.6868983321432207   T   T   T
  0.6874555754354056  0.8124615482870131  0.4375960240292854   T   T   T
  0.1875384517129869  0.3125444245645941  0.4375960240292854   T   T   T
  0.6874183973456603  0.5624580045120953  0.1875576083622412   T   T   T
  0.3127010701205097  0.8123663681752036  0.5621347259106660   T   T   T
  0.1876336318247960  0.6872989298794904  0.5621347259106660   T   T   T
  0.5624264791514848  0.8124545814122885  0.3125875635078528   T   T   T
  0.5623968799995087  0.6874353894225610  0.1875524564569400   T   T   T
  0.8125134836802260  0.4374646858544954  0.6874772375847366   T   T   T
  0.8125114132240691  0.3124595010933865  0.5625802963611428   T   T   T
  0.6874880001889729  0.4375179480965821  0.8124626258093066   T   T   T
  0.4375140216246833  0.1875492044858557  0.3125603227797180   T   T   T
  0.6875404989066136  0.1874885867759309  0.5625802963611428   T   T   T
  0.5624820519034179  0.3125119998110273  0.8124626258093066   T   T   T
  0.5625353141455046  0.1874865163197743  0.6874772375847366   T   T   T
  0.3749894973108252  0.6250105026891748  0.2500286911007833   T   T   T
  0.6249446479845453  0.6249700919223358  0.2500345575970002   T   T   T
  0.2500008813517525  0.6250148697324152  0.3748744913188088   T   T   T
  0.3751116077558867  0.6248883922441136  0.7498412651706624   T   T   T
  0.6251212316292685  0.7499491163608252  0.6249755256425475   T   T   T
  0.3750299080776641  0.3750553520154549  0.2500345575970002   T   T   T
  0.7499596664899650  0.6249807224336367  0.3750356336654774   T   T   T
  0.6250888477313080  0.6249371548950219  0.7499460420222225   T   T   T
  0.3750628451049854  0.3749111522686919  0.7499460420222225   T   T   T
  0.3750559142582066  0.2499798134473210  0.6249765249230240   T   T   T
  0.7499647383767036  0.3750239614299563  0.3750769485059298   T   T   T
  0.6249760385700432  0.2500352616232964  0.3750769485059298   T   T   T
  0.2500508836391750  0.3748787683707315  0.6249755256425475   T   T   T
  0.6249515909016440  0.3750484090983559  0.2500651111504215   T   T   T
  0.7500139679086175  0.3749669800658480  0.6250196308412751   T   T   T
  0.7500201865526785  0.6249440857417935  0.6249765249230240   T   T   T
  0.3752344515738528  0.7498400569399690  0.6246378107791106   T   T   T
  0.6250159619168593  0.3749840380831405  0.7499873852480918   T   T   T
  0.2500257805611557  0.3750184037530488  0.3750445753986580   T   T   T
  0.6250330199341523  0.2499860320913825  0.6250196308412751   T   T   T
  0.2501599430600311  0.6247655484261471  0.6246378107791106   T   T   T
  0.3750192775663637  0.2500403335100350  0.3750356336654774   T   T   T
  0.3749851302675848  0.7499991186482476  0.3748744913188088   T   T   T
  0.6249815962469513  0.7499742194388445  0.3750445753986580   T   T   T
  0.7499333372997588  0.5000374418533219  0.2500755626288551   T   T   T
  0.7499647534364227  0.7499693788348212  0.5000281815896852   T   T   T
  0.5000529513103912  0.2499977906502169  0.7499539507743053   T   T   T
  0.2500948423344893  0.7499051576655106  0.4997189615089322   T   T   T
  0.7500022093497830  0.4999470486896088  0.7499539507743053   T   T   T